
    -----------------------------------------------------------------------
          Psi4: An Open-Source Ab Initio Electronic Structure Package
                               Psi4 1.9.1 release

                         Git: Rev {} zzzzzzz 


    D. G. A. Smith, L. A. Burns, A. C. Simmonett, R. M. Parrish,
    M. C. Schieber, R. Galvelis, P. Kraus, H. Kruse, R. Di Remigio,
    A. Alenaizan, A. M. James, S. Lehtola, J. P. Misiewicz, M. Scheurer,
    R. A. Shaw, J. B. Schriber, Y. Xie, Z. L. Glick, D. A. Sirianni,
    J. S. O'Brien, J. M. Waldrop, A. Kumar, E. G. Hohenstein,
    B. P. Pritchard, B. R. Brooks, H. F. Schaefer III, A. Yu. Sokolov,
    K. Patkowski, A. E. DePrince III, U. Bozkaya, R. A. King,
    F. A. Evangelista, J. M. Turney, T. D. Crawford, C. D. Sherrill,
    J. Chem. Phys. 152(18) 184108 (2020). https://doi.org/10.1063/5.0006002

                            Additional Code Authors
    E. T. Seidl, C. L. Janssen, E. F. Valeev, M. L. Leininger,
    J. F. Gonthier, R. M. Richard, H. R. McAlexander, M. Saitow, X. Wang,
    P. Verma, M. H. Lechner, A. Jiang, S. Behnle, A. G. Heide,
    M. F. Herbst, and D. L. Poole

             Previous Authors, Complete List of Code Contributors,
                       and Citations for Specific Modules
    https://github.com/psi4/psi4/blob/master/codemeta.json
    https://github.com/psi4/psi4/graphs/contributors
    http://psicode.org/psi4manual/master/introduction.html#citing-psifour

    -----------------------------------------------------------------------


    Psi4 started on: Wednesday, 05 August 2026 04:47PM

    Process ID: 3570272
    Host:       gnode010.cluster
    PSIDATADIR: /home/hbhat/psi4conda/share/psi4
    Memory:     500.0 MiB
    Threads:    1
    
  ==> Input File <==

--------------------------------------------------------------------------
memory 1 gb

molecule h2 {
H  0.       0.      -0.37
H  0.       0.       0.37
symmetry c1
no_com
no_reorient
}

set {
    reference rhf
    basis 6-31g**
    ms0 false
    fci true
    print_MOs true
    diag_method rsp
    num_roots 100
    print 2
    dipmom true
    opdm true
    tdm true
}

thisenergy, ciwfn = prop('detci', properties=['DIPOLE', 'TRANSITION_DIPOLE'], return_wfn=True)

mints = MintsHelper(ciwfn.basisset())

AOdip = mints.ao_dipole()
AOdip[0].print_out()
AOdip[1].print_out()
AOdip[2].print_out()

# MO coefficients
C = ciwfn.Ca().to_array()

# overlap matrix
S = ciwfn.S().to_array()

print("Overlap test:")
n = S.shape[0]
print(np.mean(np.abs(C.T @ S @ C - np.eye(n))))

# z-direction AO dipole moment matrix
AOdipmat = AOdip[2].to_array()
MOdipmat = C.T @ AOdipmat @ C

# set CI size
cisize = 100

# grab the Hamiltonian
test = psi4.core.variables()
ham = []
for j in range(cisize):
    ham.append( test['CI ROOT '+str(j)+' TOTAL ENERGY'] )
ham = np.array(ham)

print("Diagonalized Hamiltonian:")
print(ham)

# initialize CI dipole moment matrix in z direction
CIdimatzMO = np.zeros((cisize,cisize))
CIdimatzAO = np.zeros((cisize,cisize))
# initialize B tensor
Bten = np.zeros((cisize, cisize, n, n))
for i in range(cisize):
    for j in range(cisize):
        ciop_dm = ciwfn.get_opdm(i,j,'SUM',True)
        # store this in Bten
        Bten[i,j,:,:] = ciop_dm.to_array()
        # density matrix: change basis from MO to AO
        dmAO = C @ ciop_dm.to_array() @ C.T
        # compute this particular density matrix element
        CIdimatzMO[i, j] = np.trace( ciop_dm.to_array() @ MOdipmat )
        CIdimatzAO[i, j] = np.trace( dmAO @ AOdipmat )

print("Difference between CI basis dipole moment matrices computed via AO vs MO:")
print(np.mean(np.abs(CIdimatzMO - CIdimatzAO)))

#CIdimatfile = np.load('../logfiles/casscf24_s15_h2_6-31gss_CI_dimat.npz')
#print("Difference between new and old CI basis dipole moment matrices:")
#print(np.mean(np.abs(CIdimatfile - CIdimatzMO)))

#print("Difference between **diagonals** of new and old CI basis dipole moment matrices:")
#print(np.mean(np.abs(np.diag(CIdimatfile - CIdimatzMO))))

# reshape OPDMs into B tensor

# np.savez('./fci_h2_6-31gss.npz',C=C,S=S,AOdipmat=AOdipmat,CIdimatz=CIdimatzMO,Bten=Bten,ham=ham)

# for debugging purposes:
# Bmat = Bten.reshape((cisize**2, n**2))
# Bmat[np.abs(Bmat) < 1e-14] = 0.0
# print(Bmat)




--------------------------------------------------------------------------

  Memory set to 953.674 MiB by Python driver.
   => Libint2 <=

    Primary   basis highest AM E, G, H:  6, 6, 3
    Auxiliary basis highest AM E, G, H:  7, 7, 4
    Onebody   basis highest AM E, G, H:  -, -, -
    Solid Harmonics ordering:            Gaussian

*** tstart() called on gnode010.cluster
*** at Wed Aug  5 16:47:51 2026

   => Loading Basis Set <=

    Name: 6-31G**
    Role: ORBITAL
    Keyword: BASIS
    atoms 1-2 entry H          line    44 file /home/hbhat/psi4conda/share/psi4/basis/6-31gss.gbs 


         ---------------------------------------------------------
                                   SCF
               by Justin Turney, Rob Parrish, Andy Simmonett
                          and Daniel G. A. Smith
                              RHF Reference
                        1 Threads,    953 MiB Core
         ---------------------------------------------------------

  ==> Geometry <==

    Molecular point group: c1
    Full point group: D_inf_h

    Geometry (in Angstrom), charge = 0, multiplicity = 1:

       Center              X                  Y                   Z               Mass       
    ------------   -----------------  -----------------  -----------------  -----------------
         H            0.000000000000     0.000000000000    -0.370000000000     1.007825032230
         H            0.000000000000     0.000000000000     0.370000000000     1.007825032230

  Running in c1 symmetry.

  Rotational constants: A = ************  B =     61.09110  C =     61.09110 [cm^-1]
  Rotational constants: A = ************  B = 1831464.96157  C = 1831464.96157 [MHz]
  Nuclear repulsion =    0.715104338743243

  Charge       = 0
  Multiplicity = 1
  Electrons    = 2
  Nalpha       = 1
  Nbeta        = 1

  ==> Algorithm <==

  SCF Algorithm Type is PK.
  DIIS enabled.
  MOM disabled.
  Fractional occupation disabled.
  Guess Type is SAD.
  Energy threshold   = 1.00e-10
  Density threshold  = 1.00e-10
  Integral threshold = 1.00e-12

  ==> Primary Basis <==

  -AO BASIS SET INFORMATION:
    Name                   = 6-31G**
    Blend                  = 6-31G**
    Total number of shells = 6
    Number of primitives   = 10
    Number of AO           = 10
    Number of SO           = 10
    Maximum AM             = 1
    Spherical Harmonics    = FALSE

  -Contraction Scheme:
    Atom   Type   All Primitives // Shells:
   ------ ------ --------------------------
       1     H     4s 1p // 2s 1p 
       2     H     4s 1p // 2s 1p 

  ==> Integral Setup <==

  Using in-core PK algorithm.
   Calculation information:
      Number of atoms:                   2
      Number of AO shells:               6
      Number of primitives:             10
      Number of atomic orbitals:        10
      Number of basis functions:        10

      Integral cutoff                 1.00e-12
      Number of threads:                 1

  Performing in-core PK
  Using 3080 doubles for integral storage.
  We computed 231 shell quartets total.
  Whereas there are 231 unique shell quartets.

  ==> DiskJK: Disk-Based J/K Matrices <==

    J tasked:                  Yes
    K tasked:                  Yes
    wK tasked:                  No
    Memory [MiB]:              715
    Schwarz Cutoff:          1E-12

    OpenMP threads:              1

  Minimum eigenvalue in the overlap matrix is 9.6176147078E-02.
  Reciprocal condition number of the overlap matrix is 3.2546191140E-02.
    Using symmetric orthogonalization.

  ==> Pre-Iterations <==

  SCF Guess: Superposition of Atomic Densities via on-the-fly atomic UHF (no occupation information).

   -------------------------
    Irrep   Nso     Nmo    
   -------------------------
     A         10      10 
   -------------------------
    Total      10      10
   -------------------------

  ==> Iterations <==

                        Total Energy        Delta E     RMS |[F,P]|

   @RHF iter SAD:    -0.85203687478047   -8.52037e-01   0.00000e+00 
   @RHF iter   1:    -1.12963106789461   -2.77594e-01   4.42297e-03 DIIS/ADIIS
   @RHF iter   2:    -1.13126028776237   -1.62922e-03   6.31857e-04 DIIS/ADIIS
   @RHF iter   3:    -1.13129383414445   -3.35464e-05   2.22621e-05 DIIS
   @RHF iter   4:    -1.13129385371897   -1.95745e-08   1.18565e-07 DIIS
   @RHF iter   5:    -1.13129385372018   -1.20437e-12   6.74502e-11 DIIS
  Energy and wave function converged.


  ==> Post-Iterations <==

    Orbital Energies [Eh]
    ---------------------

    Doubly Occupied:                                                      

       1A     -0.594921  

    Virtual:                                                              

       2A      0.239537     3A      0.771177     4A      1.310551  
       5A      1.959189     6A      1.959189     7A      2.706256  
       8A      2.931140     9A      2.931140    10A      4.534656  

    Final Occupation by Irrep:
              A 
    DOCC [     1 ]
    NA   [     1 ]
    NB   [     1 ]

  @RHF Final Energy:    -1.13129385372018

   => Energetics <=

    Nuclear Repulsion Energy =              0.7151043387432432
    One-Electron Energy =                  -2.5029535540867309
    Two-Electron Energy =                   0.6565553616233107
    Total Energy =                         -1.1312938537201771

Computation Completed


Properties will be evaluated at   0.000000,   0.000000,   0.000000 [a0]

Properties computed using the SCF density matrix


 Multipole Moments:

 ------------------------------------------------------------------------------------
     Multipole            Electronic (a.u.)      Nuclear  (a.u.)        Total (a.u.)
 ------------------------------------------------------------------------------------

 L = 1.  Multiply by 2.5417464519 to convert [e a0] to [Debye]
 Dipole X            :          0.0000000            0.0000000            0.0000000
 Dipole Y            :         -0.0000000            0.0000000           -0.0000000
 Dipole Z            :         -0.0000000            0.0000000           -0.0000000
 Magnitude           :                                                    0.0000000

 ------------------------------------------------------------------------------------

  ==> Molecular Orbitals <==

                            1            2            3            4            5

 1    H1 s          0.3183822    0.1202760    0.7458109    0.8813441   -0.0000000
 2    H1 s          0.2751990    1.7206303   -0.6773926   -1.3930340   -0.0000000
 3    H1 px        -0.0000000    0.0000000    0.0000000    0.0000000    0.1507615
 4    H1 py        -0.0000000   -0.0000000   -0.0000000   -0.0000000    0.5916881
 5    H1 pz         0.0182588    0.0023993    0.0355950   -0.2823517   -0.0000000
 6    H2 s          0.3183822   -0.1202760    0.7458109   -0.8813441    0.0000000
 7    H2 s          0.2751990   -1.7206303   -0.6773926    1.3930340    0.0000000
 8    H2 px        -0.0000000   -0.0000000   -0.0000000    0.0000000    0.1507615
 9    H2 py         0.0000000    0.0000000   -0.0000000   -0.0000000    0.5916881
 10   H2 pz        -0.0182588    0.0023993   -0.0355950   -0.2823517   -0.0000000

            Ene    -0.5949214    0.2395370    0.7711766    1.3105512    1.9591887
            Sym             A            A            A            A            A
            Occ             2            0            0            0            0


                            6            7            8            9           10

 1    H1 s         -0.0000000    0.3862497    0.0000000    0.0000000    1.4515775
 2    H1 s          0.0000000   -0.1866609   -0.0000000   -0.0000000    0.1613148
 3    H1 px         0.5916881   -0.0000000    0.2500558    0.8344644   -0.0000000
 4    H1 py        -0.1507615   -0.0000000    0.8344644   -0.2500558   -0.0000000
 5    H1 pz         0.0000000   -0.6478020    0.0000000    0.0000000    1.5790169
 6    H2 s          0.0000000    0.3862497   -0.0000000   -0.0000000   -1.4515775
 7    H2 s         -0.0000000   -0.1866609    0.0000000    0.0000000   -0.1613148
 8    H2 px         0.5916881   -0.0000000   -0.2500558   -0.8344644    0.0000000
 9    H2 py        -0.1507615    0.0000000   -0.8344644    0.2500558    0.0000000
 10   H2 pz         0.0000000    0.6478020    0.0000000    0.0000000    1.5790169

            Ene     1.9591887    2.7062558    2.9311397    2.9311397    4.5346559
            Sym             A            A            A            A            A
            Occ             0            0            0            0            0



*** tstop() called on gnode010.cluster at Wed Aug  5 16:47:51 2026
Module time:
	user time   =       0.13 seconds =       0.00 minutes
	system time =       0.01 seconds =       0.00 minutes
	total time  =          0 seconds =       0.00 minutes
Total time:
	user time   =       0.13 seconds =       0.00 minutes
	system time =       0.01 seconds =       0.00 minutes
	total time  =          0 seconds =       0.00 minutes
 MINTS: Wrapper to libmints.
   by Justin Turney

   Calculation information:
      Number of threads:                 1
      Number of atoms:                   2
      Number of AO shells:               6
      Number of SO shells:               6
      Number of primitives:             10
      Number of atomic orbitals:        10
      Number of basis functions:        10

      Number of irreps:                  1
      Integral cutoff                 1.00e-12
      Number of functions per irrep: [  10 ]

 OEINTS: Overlap, kinetic, potential, dipole, and quadrupole integrals
         stored in file 35.

      Computing two-electron integrals...done
      Computed 512 non-zero two-electron integrals.
        Stored in file 33.


         ---------------------------------------------------------
                          Configuration Interaction
                            (a 'D E T C I' module)

                 C. David Sherrill, Daniel G. A. Smith, and
                              Matt L. Leininger
         ---------------------------------------------------------

DAVIDSON update not available for OLSEN or MITRUSH iterators

   ==> Parameters <==

    EX LEVEL       =        2      H0 BLOCKSIZE  =     1000
    VAL EX LEVEL   =        0      H0 GUESS SIZE =     1000
    H0COUPLINGSIZE =        0      H0 COUPLING   =       NO
    MAXITER        =       24      NUM PRINT     =       20
    NUM ROOTS      =      100      ICORE         =        1
    PRINT LVL      =        2      FCI           =      YES
    R CONV         = 1.00e-04      MIXED         =      YES
    E CONV         = 1.00e-08      MIXED4        =      YES
    R4S            =       NO      REPL OTF      =       NO
    DIAG METHOD    =      RSP      FOLLOW ROOT   =        0
    PRECONDITIONER = DAVIDSON      UPDATE        = OLSEN
    S              =   0.0000      Ms0           =       NO
    GUESS VECTOR   =  H0BLOCK      OPENTYPE      =     NONE
    COLLAPSE SIZE  =        1      HD AVG        = EVANGELISTI
    MAX NUM VECS   =        0      REF SYM       =     AUTO
    IOPEN        =       NO

    EX ALLOW       =  1  1 
    STATE AVERAGE  =  0(1.00) 

   ==> CI Orbital and Space information <==

   ------------------------------------
               Space    Total     A
   ------------------------------------
                 Nso       10    10
                 Nmo       10    10
               Ndocc        1     1
               Nsocc        0     0
   ------------------------------------
              CI Spaces
   ------------------------------------
        Dropped DOCC        0     0
              Active       10    10
        Dropped UOCC        0     0
   ------------------------------------

   ==> Setting up CI strings <==

    There are 10 alpha and 10 beta strings
    The CI space requires 100 (1.00E+02) determinants and 1 blocks
    Total H0block size (including coupling): 100

   ==> Transforming CI integrals <==

	Presorting SO-basis two-electron integrals.
	Sorting File: SO Ints (nn|nn) nbuckets = 1
	Constructing frozen core operators
	Starting first half-transformation.
	h = 0; memfree         = 124999800
	h = 0; rows_per_bucket = 55
	h = 0; rows_left       = 0
	h = 0; nbuckets        = 1
	Sorting half-transformed integrals.
	First half integral transformation complete.
	Starting second half-transformation.
	h = 0; memfree         = 124999800
	h = 0; rows_per_bucket = 55
	h = 0; rows_left       = 0
	h = 0; nbuckets        = 1
	Two-electron integral transformation complete.

   ==> Starting CI iterations <==

    Exact Diagonalization Algorithm

   ==> Energetics <==

    SCF energy =           -1.131293853720177
    Total CI energy =      -1.165155735248026

   ==> DETCI root 0 information <==

    DETCI Root 0 energy =    -1.165155735248026

   The 20 most important determinants:

    *   1   -0.992319  (    0,    0)  1AX 
    *   2    0.069456  (    1,    1)  2AX 
    *   3    0.053381  (    2,    2)  3AX 
    *   4    0.042635  (    1,    3)  2AA 4AB 
    *   5    0.042635  (    3,    1)  2AB 4AA 
    *   6    0.039860  (    3,    3)  4AX 
    *   7    0.028133  (    4,    4)  5AX 
    *   8    0.028133  (    5,    5)  6AX 
    *   9    0.012343  (    6,    6)  7AX 
    *  10   -0.011427  (    6,    2)  3AB 7AA 
    *  11   -0.011427  (    2,    6)  3AA 7AB 
    *  12   -0.008192  (    0,    2)  1AA 3AB 
    *  13   -0.008192  (    2,    0)  1AB 3AA 
    *  14    0.007707  (    8,    8)  9AX 
    *  15    0.007707  (    7,    7)  8AX 
    *  16    0.006380  (    3,    9)  4AA 10AB 
    *  17    0.006380  (    9,    3)  4AB 10AA 
    *  18    0.004773  (    9,    9)  10AX 
    *  19    0.003868  (    1,    9)  2AA 10AB 
    *  20    0.003868  (    9,    1)  2AB 10AA 


   ==> DETCI root 1 information <==

    DETCI Root 1 energy =    -0.763108737755791

   The 20 most important determinants:

    *   1   -0.695106  (    0,    1)  1AA 2AB 
    *   2    0.695106  (    1,    0)  1AB 2AA 
    *   3    0.109939  (    3,    0)  1AB 4AA 
    *   4   -0.109939  (    0,    3)  1AA 4AB 
    *   5   -0.066261  (    2,    1)  2AB 3AA 
    *   6    0.066261  (    1,    2)  2AA 3AB 
    *   7   -0.011909  (    6,    3)  4AB 7AA 
    *   8    0.011909  (    3,    6)  4AA 7AB 
    *   9    0.010666  (    2,    3)  3AA 4AB 
    *  10   -0.010666  (    3,    2)  3AB 4AA 
    *  11    0.005083  (    5,    8)  6AA 9AB 
    *  12   -0.005083  (    7,    4)  5AB 8AA 
    *  13    0.005083  (    4,    7)  5AA 8AB 
    *  14   -0.005083  (    8,    5)  6AB 9AA 
    *  15   -0.004951  (    0,    9)  1AA 10AB 
    *  16    0.004951  (    9,    0)  1AB 10AA 
    *  17   -0.003705  (    6,    9)  7AA 10AB 
    *  18    0.003705  (    9,    6)  7AB 10AA 
    *  19    0.001772  (    6,    1)  2AB 7AA 
    *  20   -0.001772  (    1,    6)  2AA 7AB 


   ==> DETCI root 2 information <==

    DETCI Root 2 energy =    -0.612896810052783

   The 20 most important determinants:

    *   1    0.697551  (    1,    0)  1AB 2AA 
    *   2    0.697551  (    0,    1)  1AA 2AB 
    *   3    0.105403  (    1,    2)  2AA 3AB 
    *   4    0.105403  (    2,    1)  2AB 3AA 
    *   5   -0.033325  (    6,    1)  2AB 7AA 
    *   6   -0.033325  (    1,    6)  2AA 7AB 
    *   7   -0.022677  (    3,    2)  3AB 4AA 
    *   8   -0.022677  (    2,    3)  3AA 4AB 
    *   9   -0.014320  (    7,    4)  5AB 8AA 
    *  10   -0.014320  (    8,    5)  6AB 9AA 
    *  11   -0.014320  (    4,    7)  5AA 8AB 
    *  12   -0.014320  (    5,    8)  6AA 9AB 
    *  13   -0.012695  (    6,    3)  4AB 7AA 
    *  14   -0.012695  (    3,    6)  4AA 7AB 
    *  15   -0.008211  (    0,    3)  1AA 4AB 
    *  16   -0.008211  (    3,    0)  1AB 4AA 
    *  17   -0.004878  (    9,    2)  3AB 10AA 
    *  18   -0.004878  (    2,    9)  3AA 10AB 
    *  19    0.003916  (    9,    6)  7AB 10AA 
    *  20    0.003916  (    6,    9)  7AA 10AB 


   ==> DETCI root 3 information <==

    DETCI Root 3 energy =    -0.312658433250069

   The 20 most important determinants:

    *   1   -0.705413  (    0,    2)  1AA 3AB 
    *   2    0.705413  (    2,    0)  1AB 3AA 
    *   3    0.039449  (    1,    3)  2AA 4AB 
    *   4   -0.039449  (    3,    1)  2AB 4AA 
    *   5   -0.026066  (    6,    0)  1AB 7AA 
    *   6    0.026066  (    0,    6)  1AA 7AB 
    *   7   -0.011556  (    2,    6)  3AA 7AB 
    *   8    0.011556  (    6,    2)  3AB 7AA 
    *   9   -0.004052  (    9,    1)  2AB 10AA 
    *  10    0.004052  (    1,    9)  2AA 10AB 
    *  11   -0.002732  (    9,    3)  4AB 10AA 
    *  12    0.002732  (    3,    9)  4AA 10AB 


   ==> DETCI root 4 information <==

    DETCI Root 4 energy =    -0.113291156449962

   The 20 most important determinants:

    *   1    0.682551  (    2,    0)  1AB 3AA 
    *   2    0.682551  (    0,    2)  1AA 3AB 
    *   3    0.225535  (    1,    1)  2AX 
    *   4   -0.088831  (    3,    3)  4AX 
    *   5    0.074260  (    2,    2)  3AX 
    *   6   -0.030669  (    1,    3)  2AA 4AB 
    *   7   -0.030669  (    3,    1)  2AB 4AA 
    *   8   -0.020581  (    4,    4)  5AX 
    *   9   -0.020581  (    5,    5)  6AX 
    *  10   -0.016570  (    6,    6)  7AX 
    *  11   -0.015715  (    3,    9)  4AA 10AB 
    *  12   -0.015715  (    9,    3)  4AB 10AA 
    *  13    0.011757  (    6,    2)  3AB 7AA 
    *  14    0.011757  (    2,    6)  3AA 7AB 
    *  15   -0.007543  (    9,    9)  10AX 
    *  16   -0.006489  (    9,    1)  2AB 10AA 
    *  17   -0.006489  (    1,    9)  2AA 10AB 
    *  18   -0.004946  (    8,    8)  9AX 
    *  19   -0.004946  (    7,    7)  8AX 
    *  20    0.002645  (    6,    0)  1AB 7AA 


   ==> DETCI root 5 information <==

    DETCI Root 5 energy =    -0.050976062264426

   The 20 most important determinants:

    *   1    0.937578  (    1,    1)  2AX 
    *   2    0.177988  (    3,    1)  2AB 4AA 
    *   3    0.177988  (    1,    3)  2AA 4AB 
    *   4   -0.143576  (    2,    0)  1AB 3AA 
    *   5   -0.143576  (    0,    2)  1AA 3AB 
    *   6    0.078997  (    0,    0)  1AX 
    *   7   -0.069419  (    2,    2)  3AX 
    *   8   -0.045909  (    6,    0)  1AB 7AA 
    *   9   -0.045909  (    0,    6)  1AA 7AB 
    *  10    0.015886  (    9,    1)  2AB 10AA 
    *  11    0.015886  (    1,    9)  2AA 10AB 
    *  12   -0.013945  (    6,    6)  7AX 
    *  13   -0.010151  (    7,    7)  8AX 
    *  14   -0.010151  (    8,    8)  9AX 
    *  15   -0.007798  (    4,    4)  5AX 
    *  16   -0.007798  (    5,    5)  6AX 
    *  17   -0.004496  (    3,    3)  4AX 
    *  18   -0.003541  (    9,    9)  10AX 
    *  19    0.002865  (    3,    9)  4AA 10AB 
    *  20    0.002865  (    9,    3)  4AB 10AA 


   ==> DETCI root 6 information <==

    DETCI Root 6 energy =     0.148389620552846

   The 20 most important determinants:

    *   1   -0.693668  (    3,    0)  1AB 4AA 
    *   2    0.693668  (    0,    3)  1AA 4AB 
    *   3   -0.107486  (    0,    1)  1AA 2AB 
    *   4    0.107486  (    1,    0)  1AB 2AA 
    *   5    0.075168  (    2,    3)  3AA 4AB 
    *   6   -0.075168  (    3,    2)  3AB 4AA 
    *   7   -0.028514  (    1,    6)  2AA 7AB 
    *   8    0.028514  (    6,    1)  2AB 7AA 
    *   9   -0.019911  (    9,    0)  1AB 10AA 
    *  10    0.019911  (    0,    9)  1AA 10AB 
    *  11    0.014829  (    1,    2)  2AA 3AB 
    *  12   -0.014829  (    2,    1)  2AB 3AA 
    *  13    0.008706  (    6,    3)  4AB 7AA 
    *  14   -0.008706  (    3,    6)  4AA 7AB 
    *  15   -0.006019  (    9,    6)  7AB 10AA 
    *  16    0.006019  (    6,    9)  7AA 10AB 
    *  17    0.005767  (    8,    5)  6AB 9AA 
    *  18    0.005767  (    7,    4)  5AB 8AA 
    *  19   -0.005767  (    4,    7)  5AA 8AB 
    *  20   -0.005767  (    5,    8)  6AA 9AB 


   ==> DETCI root 7 information <==

    DETCI Root 7 energy =     0.225821259766214

   The 20 most important determinants:

    *   1    0.525071  (    0,    3)  1AA 4AB 
    *   2    0.525071  (    3,    0)  1AB 4AA 
    *   3   -0.455726  (    1,    2)  2AA 3AB 
    *   4   -0.455726  (    2,    1)  2AB 3AA 
    *   5   -0.101591  (    3,    2)  3AB 4AA 
    *   6   -0.101591  (    2,    3)  3AA 4AB 
    *   7    0.070175  (    1,    0)  1AB 2AA 
    *   8    0.070175  (    0,    1)  1AA 2AB 
    *   9   -0.019274  (    3,    6)  4AA 7AB 
    *  10   -0.019274  (    6,    3)  4AB 7AA 
    *  11   -0.015176  (    5,    8)  6AA 9AB 
    *  12   -0.015176  (    7,    4)  5AB 8AA 
    *  13   -0.015176  (    4,    7)  5AA 8AB 
    *  14   -0.015176  (    8,    5)  6AB 9AA 
    *  15   -0.014436  (    9,    2)  3AB 10AA 
    *  16   -0.014436  (    2,    9)  3AA 10AB 
    *  17    0.013342  (    0,    9)  1AA 10AB 
    *  18    0.013342  (    9,    0)  1AB 10AA 
    *  19   -0.010843  (    1,    6)  2AA 7AB 
    *  20   -0.010843  (    6,    1)  2AB 7AA 


   ==> DETCI root 8 information <==

    DETCI Root 8 energy =     0.304812696548475

   The 20 most important determinants:

    *   1    0.695986  (    2,    1)  2AB 3AA 
    *   2   -0.695986  (    1,    2)  2AA 3AB 
    *   3   -0.098823  (    3,    2)  3AB 4AA 
    *   4    0.098823  (    2,    3)  3AA 4AB 
    *   5   -0.064488  (    0,    1)  1AA 2AB 
    *   6    0.064488  (    1,    0)  1AB 2AA 
    *   7   -0.037676  (    6,    1)  2AB 7AA 
    *   8    0.037676  (    1,    6)  2AA 7AB 
    *   9   -0.013515  (    3,    6)  4AA 7AB 
    *  10    0.013515  (    6,    3)  4AB 7AA 
    *  11    0.005385  (    2,    9)  3AA 10AB 
    *  12   -0.005385  (    9,    2)  3AB 10AA 
    *  13    0.004533  (    3,    0)  1AB 4AA 
    *  14   -0.004533  (    0,    3)  1AA 4AB 
    *  15    0.004352  (    6,    9)  7AA 10AB 
    *  16   -0.004352  (    9,    6)  7AB 10AA 
    *  17    0.001816  (    0,    9)  1AA 10AB 
    *  18   -0.001816  (    9,    0)  1AB 10AA 
    *  19    0.001629  (    7,    4)  5AB 8AA 
    *  20    0.001629  (    8,    5)  6AB 9AA 


   ==> DETCI root 9 information <==

    DETCI Root 9 energy =     0.521972882137235

   The 20 most important determinants:

    *   1    0.521443  (    1,    2)  2AA 3AB 
    *   2    0.521443  (    2,    1)  2AB 3AA 
    *   3    0.465474  (    0,    3)  1AA 4AB 
    *   4    0.465474  (    3,    0)  1AB 4AA 
    *   5   -0.076050  (    1,    0)  1AB 2AA 
    *   6   -0.076050  (    0,    1)  1AA 2AB 
    *   7   -0.045470  (    1,    6)  2AA 7AB 
    *   8   -0.045470  (    6,    1)  2AB 7AA 
    *   9   -0.037252  (    6,    3)  4AB 7AA 
    *  10   -0.037252  (    3,    6)  4AA 7AB 
    *  11    0.033138  (    3,    2)  3AB 4AA 
    *  12    0.033138  (    2,    3)  3AA 4AB 
    *  13   -0.019210  (    4,    7)  5AA 8AB 
    *  14   -0.019210  (    7,    4)  5AB 8AA 
    *  15   -0.019210  (    5,    8)  6AA 9AB 
    *  16   -0.019210  (    8,    5)  6AB 9AA 
    *  17   -0.016259  (    2,    9)  3AA 10AB 
    *  18   -0.016259  (    9,    2)  3AB 10AA 
    *  19   -0.008848  (    0,    9)  1AA 10AB 
    *  20   -0.008848  (    9,    0)  1AB 10AA 


   ==> DETCI root 10 information <==

    DETCI Root 10 energy =     0.705472482860891

   The 20 most important determinants:

    *   1    0.704587  (    3,    1)  2AB 4AA 
    *   2   -0.704587  (    1,    3)  2AA 4AB 
    *   3    0.038472  (    2,    0)  1AB 3AA 
    *   4   -0.038472  (    0,    2)  1AA 3AB 
    *   5   -0.033110  (    1,    9)  2AA 10AB 
    *   6    0.033110  (    9,    1)  2AB 10AA 
    *   7    0.023572  (    6,    2)  3AB 7AA 
    *   8   -0.023572  (    2,    6)  3AA 7AB 
    *   9   -0.019070  (    6,    0)  1AB 7AA 
    *  10    0.019070  (    0,    6)  1AA 7AB 
    *  11    0.007819  (    3,    9)  4AA 10AB 
    *  12   -0.007819  (    9,    3)  4AB 10AA 


   ==> DETCI root 11 information <==

    DETCI Root 11 energy =     0.711562637957148

   The 20 most important determinants:

    *   1   -0.684125  (    5,    0)  1AB 6AA 
    *   2    0.684125  (    0,    5)  1AA 6AB 
    *   3    0.172338  (    4,    0)  1AB 5AA 
    *   4   -0.172338  (    0,    4)  1AA 5AB 
    *   5    0.031967  (    8,    1)  2AB 9AA 
    *   6   -0.031967  (    1,    8)  2AA 9AB 
    *   7    0.024959  (    8,    3)  4AB 9AA 
    *   8   -0.024959  (    3,    8)  4AA 9AB 
    *   9   -0.022539  (    5,    2)  3AB 6AA 
    *  10    0.022539  (    2,    5)  3AA 6AB 
    *  11    0.006651  (    1,    7)  2AA 8AB 
    *  12   -0.006651  (    7,    1)  2AB 8AA 
    *  13    0.005678  (    4,    2)  3AB 5AA 
    *  14   -0.005678  (    2,    4)  3AA 5AB 
    *  15    0.005193  (    3,    7)  4AA 8AB 
    *  16   -0.005193  (    7,    3)  4AB 8AA 
    *  17    0.003043  (    8,    9)  9AA 10AB 
    *  18   -0.003043  (    9,    8)  9AB 10AA 
    *  19   -0.002600  (    6,    5)  6AB 7AA 
    *  20    0.002600  (    5,    6)  6AA 7AB 


   ==> DETCI root 12 information <==

    DETCI Root 12 energy =     0.711562637957157

   The 20 most important determinants:

    *   1   -0.684125  (    4,    0)  1AB 5AA 
    *   2    0.684125  (    0,    4)  1AA 5AB 
    *   3    0.172338  (    0,    5)  1AA 6AB 
    *   4   -0.172338  (    5,    0)  1AB 6AA 
    *   5    0.031967  (    7,    1)  2AB 8AA 
    *   6   -0.031967  (    1,    7)  2AA 8AB 
    *   7    0.024959  (    7,    3)  4AB 8AA 
    *   8   -0.024959  (    3,    7)  4AA 8AB 
    *   9    0.022539  (    2,    4)  3AA 5AB 
    *  10   -0.022539  (    4,    2)  3AB 5AA 
    *  11    0.006651  (    8,    1)  2AB 9AA 
    *  12   -0.006651  (    1,    8)  2AA 9AB 
    *  13   -0.005678  (    5,    2)  3AB 6AA 
    *  14    0.005678  (    2,    5)  3AA 6AB 
    *  15   -0.005193  (    3,    8)  4AA 9AB 
    *  16    0.005193  (    8,    3)  4AB 9AA 
    *  17   -0.003043  (    9,    7)  8AB 10AA 
    *  18    0.003043  (    7,    9)  8AA 10AB 
    *  19   -0.002600  (    6,    4)  5AB 7AA 
    *  20    0.002600  (    4,    6)  5AA 7AB 


   ==> DETCI root 13 information <==

    DETCI Root 13 energy =     0.791068363837081

   The 20 most important determinants:

    *   1   -0.982852  (    2,    2)  3AX 
    *   2    0.104484  (    3,    3)  4AX 
    *   3    0.066818  (    2,    0)  1AB 3AA 
    *   4    0.066818  (    0,    2)  1AA 3AB 
    *   5   -0.055222  (    0,    6)  1AA 7AB 
    *   6   -0.055222  (    6,    0)  1AB 7AA 
    *   7   -0.054203  (    0,    0)  1AX 
    *   8   -0.042934  (    1,    1)  2AX 
    *   9    0.025453  (    2,    6)  3AA 7AB 
    *  10    0.025453  (    6,    2)  3AB 7AA 
    *  11   -0.024994  (    3,    1)  2AB 4AA 
    *  12   -0.024994  (    1,    3)  2AA 4AB 
    *  13    0.013297  (    3,    9)  4AA 10AB 
    *  14    0.013297  (    9,    3)  4AB 10AA 
    *  15    0.010870  (    6,    6)  7AX 
    *  16    0.010139  (    5,    5)  6AX 
    *  17    0.010139  (    4,    4)  5AX 
    *  18    0.006110  (    9,    9)  10AX 
    *  19    0.002764  (    7,    7)  8AX 
    *  20    0.002764  (    8,    8)  9AX 


   ==> DETCI root 14 information <==

    DETCI Root 14 energy =     0.873896872167907

   The 20 most important determinants:

    *   1    0.664441  (    1,    3)  2AA 4AB 
    *   2    0.664441  (    3,    1)  2AB 4AA 
    *   3   -0.244604  (    1,    1)  2AX 
    *   4   -0.115120  (    0,    6)  1AA 7AB 
    *   5   -0.115120  (    6,    0)  1AB 7AA 
    *   6    0.111028  (    3,    3)  4AX 
    *   7    0.076641  (    2,    0)  1AB 3AA 
    *   8    0.076641  (    0,    2)  1AA 3AB 
    *   9    0.042778  (    0,    0)  1AX 
    *  10   -0.030827  (    6,    6)  7AX 
    *  11    0.026545  (    9,    1)  2AB 10AA 
    *  12    0.026545  (    1,    9)  2AA 10AB 
    *  13   -0.025118  (    4,    4)  5AX 
    *  14   -0.025118  (    5,    5)  6AX 
    *  15   -0.016403  (    6,    2)  3AB 7AA 
    *  16   -0.016403  (    2,    6)  3AA 7AB 
    *  17   -0.014669  (    8,    8)  9AX 
    *  18   -0.014669  (    7,    7)  8AX 
    *  19   -0.009967  (    9,    9)  10AX 
    *  20    0.007698  (    2,    2)  3AX 


   ==> DETCI root 15 information <==

    DETCI Root 15 energy =     0.936397200560084

   The 20 most important determinants:

    *   1   -0.688250  (    0,    4)  1AA 5AB 
    *   2   -0.688250  (    4,    0)  1AB 5AA 
    *   3   -0.127471  (    0,    5)  1AA 6AB 
    *   4   -0.127471  (    5,    0)  1AB 6AA 
    *   5    0.070347  (    1,    7)  2AA 8AB 
    *   6    0.070347  (    7,    1)  2AB 8AA 
    *   7    0.052626  (    7,    3)  4AB 8AA 
    *   8    0.052626  (    3,    7)  4AA 8AB 
    *   9    0.042819  (    2,    4)  3AA 5AB 
    *  10    0.042819  (    4,    2)  3AB 5AA 
    *  11   -0.014983  (    4,    6)  5AA 7AB 
    *  12   -0.014983  (    6,    4)  5AB 7AA 
    *  13    0.010020  (    8,    1)  2AB 9AA 
    *  14    0.010020  (    1,    8)  2AA 9AB 
    *  15    0.007931  (    2,    5)  3AA 6AB 
    *  16    0.007931  (    5,    2)  3AB 6AA 
    *  17    0.007655  (    9,    7)  8AB 10AA 
    *  18    0.007655  (    7,    9)  8AA 10AB 
    *  19    0.007496  (    8,    3)  4AB 9AA 
    *  20    0.007496  (    3,    8)  4AA 9AB 


   ==> DETCI root 16 information <==

    DETCI Root 16 energy =     0.936397200560090

   The 20 most important determinants:

    *   1    0.688250  (    0,    5)  1AA 6AB 
    *   2    0.688250  (    5,    0)  1AB 6AA 
    *   3   -0.127471  (    0,    4)  1AA 5AB 
    *   4   -0.127471  (    4,    0)  1AB 5AA 
    *   5   -0.070347  (    1,    8)  2AA 9AB 
    *   6   -0.070347  (    8,    1)  2AB 9AA 
    *   7   -0.052626  (    3,    8)  4AA 9AB 
    *   8   -0.052626  (    8,    3)  4AB 9AA 
    *   9   -0.042819  (    2,    5)  3AA 6AB 
    *  10   -0.042819  (    5,    2)  3AB 6AA 
    *  11    0.014983  (    6,    5)  6AB 7AA 
    *  12    0.014983  (    5,    6)  6AA 7AB 
    *  13    0.010020  (    1,    7)  2AA 8AB 
    *  14    0.010020  (    7,    1)  2AB 8AA 
    *  15    0.007931  (    2,    4)  3AA 5AB 
    *  16    0.007931  (    4,    2)  3AB 5AA 
    *  17   -0.007655  (    8,    9)  9AA 10AB 
    *  18   -0.007655  (    9,    8)  9AB 10AA 
    *  19    0.007496  (    7,    3)  4AB 8AA 
    *  20    0.007496  (    3,    7)  4AA 8AB 


   ==> DETCI root 17 information <==

    DETCI Root 17 energy =     1.140964823958512

   The 20 most important determinants:

    *   1   -0.695310  (    3,    2)  3AB 4AA 
    *   2    0.695310  (    2,    3)  3AA 4AB 
    *   3    0.096218  (    1,    2)  2AA 3AB 
    *   4   -0.096218  (    2,    1)  2AB 3AA 
    *   5   -0.072577  (    0,    3)  1AA 4AB 
    *   6    0.072577  (    3,    0)  1AB 4AA 
    *   7   -0.031339  (    1,    0)  1AB 2AA 
    *   8    0.031339  (    0,    1)  1AA 2AB 
    *   9   -0.029061  (    9,    2)  3AB 10AA 
    *  10    0.029061  (    2,    9)  3AA 10AB 
    *  11    0.008560  (    9,    0)  1AB 10AA 
    *  12   -0.008560  (    0,    9)  1AA 10AB 
    *  13   -0.007187  (    9,    6)  7AB 10AA 
    *  14    0.007187  (    6,    9)  7AA 10AB 
    *  15   -0.007086  (    1,    6)  2AA 7AB 
    *  16    0.007086  (    6,    1)  2AB 7AA 
    *  17    0.002438  (    6,    3)  4AB 7AA 
    *  18   -0.002438  (    3,    6)  4AA 7AB 
    *  19   -0.002379  (    5,    8)  6AA 9AB 
    *  20    0.002379  (    7,    4)  5AB 8AA 


   ==> DETCI root 18 information <==

    DETCI Root 18 energy =     1.255350612918941

   The 20 most important determinants:

    *   1   -0.671334  (    1,    4)  2AA 5AB 
    *   2   -0.671334  (    4,    1)  2AB 5AA 
    *   3    0.206443  (    0,    7)  1AA 8AB 
    *   4    0.206443  (    7,    0)  1AB 8AA 
    *   5   -0.063157  (    3,    4)  4AA 5AB 
    *   6   -0.063157  (    4,    3)  4AB 5AA 
    *   7   -0.048441  (    5,    1)  2AB 6AA 
    *   8   -0.048441  (    1,    5)  2AA 6AB 
    *   9    0.013862  (    6,    7)  7AA 8AB 
    *  10    0.013862  (    7,    6)  7AB 8AA 
    *  11    0.009943  (    7,    2)  3AB 8AA 
    *  12    0.009943  (    2,    7)  3AA 8AB 
    *  13    0.006273  (    8,    0)  1AB 9AA 
    *  14    0.006273  (    0,    8)  1AA 9AB 
    *  15   -0.004557  (    5,    3)  4AB 6AA 
    *  16   -0.004557  (    3,    5)  4AA 6AB 
    *  17   -0.002401  (    9,    4)  5AB 10AA 
    *  18   -0.002401  (    4,    9)  5AA 10AB 
    *  19    0.000421  (    8,    6)  7AB 9AA 
    *  20    0.000421  (    6,    8)  7AA 9AB 


   ==> DETCI root 19 information <==

    DETCI Root 19 energy =     1.255350612918944

   The 20 most important determinants:

    *   1   -0.671334  (    5,    1)  2AB 6AA 
    *   2   -0.671334  (    1,    5)  2AA 6AB 
    *   3    0.206443  (    8,    0)  1AB 9AA 
    *   4    0.206443  (    0,    8)  1AA 9AB 
    *   5   -0.063157  (    5,    3)  4AB 6AA 
    *   6   -0.063157  (    3,    5)  4AA 6AB 
    *   7    0.048441  (    4,    1)  2AB 5AA 
    *   8    0.048441  (    1,    4)  2AA 5AB 
    *   9    0.013862  (    8,    6)  7AB 9AA 
    *  10    0.013862  (    6,    8)  7AA 9AB 
    *  11    0.009943  (    2,    8)  3AA 9AB 
    *  12    0.009943  (    8,    2)  3AB 9AA 
    *  13   -0.006273  (    7,    0)  1AB 8AA 
    *  14   -0.006273  (    0,    7)  1AA 8AB 
    *  15    0.004557  (    4,    3)  4AB 5AA 
    *  16    0.004557  (    3,    4)  4AA 5AB 
    *  17   -0.002401  (    5,    9)  6AA 10AB 
    *  18   -0.002401  (    9,    5)  6AB 10AA 
    *  19   -0.000421  (    7,    6)  7AB 8AA 
    *  20   -0.000421  (    6,    7)  7AA 8AB 


   ==> DETCI root 20 information <==

    DETCI Root 20 energy =     1.255516220351546

   The 20 most important determinants:

    *   1    0.700633  (    4,    1)  2AB 5AA 
    *   2   -0.700633  (    1,    4)  2AA 5AB 
    *   3   -0.066661  (    7,    0)  1AB 8AA 
    *   4    0.066661  (    0,    7)  1AA 8AB 
    *   5    0.065731  (    4,    3)  4AB 5AA 
    *   6   -0.065731  (    3,    4)  4AA 5AB 
    *   7   -0.016963  (    7,    6)  7AB 8AA 
    *   8    0.016963  (    6,    7)  7AA 8AB 
    *   9   -0.007112  (    2,    7)  3AA 8AB 
    *  10    0.007112  (    7,    2)  3AB 8AA 
    *  11   -0.002694  (    0,    8)  1AA 9AB 
    *  12    0.002694  (    8,    0)  1AB 9AA 
    *  13    0.001490  (    4,    9)  5AA 10AB 
    *  14   -0.001490  (    9,    4)  5AB 10AA 
    *  15    0.000885  (    5,    1)  2AB 6AA 
    *  16   -0.000885  (    1,    5)  2AA 6AB 
    *  17   -0.000686  (    6,    8)  7AA 9AB 
    *  18    0.000686  (    8,    6)  7AB 9AA 
    *  19   -0.000287  (    8,    2)  3AB 9AA 
    *  20    0.000287  (    2,    8)  3AA 9AB 


   ==> DETCI root 21 information <==

    DETCI Root 21 energy =     1.255516220351549

   The 20 most important determinants:

    *   1   -0.700633  (    1,    5)  2AA 6AB 
    *   2    0.700633  (    5,    1)  2AB 6AA 
    *   3    0.066661  (    0,    8)  1AA 9AB 
    *   4   -0.066661  (    8,    0)  1AB 9AA 
    *   5   -0.065731  (    3,    5)  4AA 6AB 
    *   6    0.065731  (    5,    3)  4AB 6AA 
    *   7    0.016963  (    6,    8)  7AA 9AB 
    *   8   -0.016963  (    8,    6)  7AB 9AA 
    *   9    0.007112  (    8,    2)  3AB 9AA 
    *  10   -0.007112  (    2,    8)  3AA 9AB 
    *  11    0.002694  (    0,    7)  1AA 8AB 
    *  12   -0.002694  (    7,    0)  1AB 8AA 
    *  13   -0.001490  (    9,    5)  6AB 10AA 
    *  14    0.001490  (    5,    9)  6AA 10AB 
    *  15   -0.000885  (    4,    1)  2AB 5AA 
    *  16    0.000885  (    1,    4)  2AA 5AB 
    *  17    0.000686  (    6,    7)  7AA 8AB 
    *  18   -0.000686  (    7,    6)  7AB 8AA 
    *  19    0.000287  (    7,    2)  3AB 8AA 
    *  20   -0.000287  (    2,    7)  3AA 8AB 


   ==> DETCI root 22 information <==

    DETCI Root 22 energy =     1.322964194499140

   The 20 most important determinants:

    *   1   -0.693541  (    2,    3)  3AA 4AB 
    *   2   -0.693541  (    3,    2)  3AB 4AA 
    *   3    0.089330  (    2,    1)  2AB 3AA 
    *   4    0.089330  (    1,    2)  2AA 3AB 
    *   5    0.067436  (    3,    6)  4AA 7AB 
    *   6    0.067436  (    6,    3)  4AB 7AA 
    *   7   -0.050051  (    3,    0)  1AB 4AA 
    *   8   -0.050051  (    0,    3)  1AA 4AB 
    *   9    0.046489  (    0,    9)  1AA 10AB 
    *  10    0.046489  (    9,    0)  1AB 10AA 
    *  11   -0.035119  (    0,    1)  1AA 2AB 
    *  12   -0.035119  (    1,    0)  1AB 2AA 
    *  13    0.014880  (    5,    8)  6AA 9AB 
    *  14    0.014880  (    8,    5)  6AB 9AA 
    *  15    0.014880  (    7,    4)  5AB 8AA 
    *  16    0.014880  (    4,    7)  5AA 8AB 
    *  17   -0.011258  (    6,    1)  2AB 7AA 
    *  18   -0.011258  (    1,    6)  2AA 7AB 
    *  19   -0.001486  (    6,    9)  7AA 10AB 
    *  20   -0.001486  (    9,    6)  7AB 10AA 


   ==> DETCI root 23 information <==

    DETCI Root 23 energy =     1.473081089940198

   The 20 most important determinants:

    *   1   -0.705153  (    0,    6)  1AA 7AB 
    *   2    0.705153  (    6,    0)  1AB 7AA 
    *   3    0.026734  (    2,    0)  1AB 3AA 
    *   4   -0.026734  (    0,    2)  1AA 3AB 
    *   5    0.026437  (    6,    2)  3AB 7AA 
    *   6   -0.026437  (    2,    6)  3AA 7AB 
    *   7   -0.025488  (    1,    9)  2AA 10AB 
    *   8    0.025488  (    9,    1)  2AB 10AA 
    *   9    0.021130  (    9,    3)  4AB 10AA 
    *  10   -0.021130  (    3,    9)  4AA 10AB 
    *  11   -0.015778  (    1,    3)  2AA 4AB 
    *  12    0.015778  (    3,    1)  2AB 4AA 


   ==> DETCI root 24 information <==

    DETCI Root 24 energy =     1.584185756215851

   The 20 most important determinants:

    *   1   -0.563823  (    6,    0)  1AB 7AA 
    *   2   -0.563823  (    0,    6)  1AA 7AB 
    *   3    0.545622  (    3,    3)  4AX 
    *   4   -0.143939  (    3,    1)  2AB 4AA 
    *   5   -0.143939  (    1,    3)  2AA 4AB 
    *   6    0.128216  (    2,    2)  3AX 
    *   7   -0.042713  (    9,    1)  2AB 10AA 
    *   8   -0.042713  (    1,    9)  2AA 10AB 
    *   9   -0.039990  (    4,    4)  5AX 
    *  10   -0.039990  (    5,    5)  6AX 
    *  11    0.019585  (    0,    2)  1AA 3AB 
    *  12    0.019585  (    2,    0)  1AB 3AA 
    *  13    0.018275  (    0,    0)  1AX 
    *  14    0.016773  (    1,    1)  2AX 
    *  15   -0.010262  (    6,    6)  7AX 
    *  16   -0.008977  (    3,    9)  4AA 10AB 
    *  17   -0.008977  (    9,    3)  4AB 10AA 
    *  18   -0.007817  (    9,    9)  10AX 
    *  19    0.004531  (    8,    8)  9AX 
    *  20    0.004531  (    7,    7)  8AX 


   ==> DETCI root 25 information <==

    DETCI Root 25 energy =     1.724885514798002

   The 20 most important determinants:

    *   1   -0.680934  (    2,    4)  3AA 5AB 
    *   2    0.680934  (    4,    2)  3AB 5AA 
    *   3   -0.183126  (    5,    2)  3AB 6AA 
    *   4    0.183126  (    2,    5)  3AA 6AB 
    *   5    0.039009  (    3,    7)  4AA 8AB 
    *   6   -0.039009  (    7,    3)  4AB 8AA 
    *   7   -0.023178  (    4,    0)  1AB 5AA 
    *   8    0.023178  (    0,    4)  1AA 5AB 
    *   9   -0.016360  (    1,    7)  2AA 8AB 
    *  10    0.016360  (    7,    1)  2AB 8AA 
    *  11   -0.013519  (    4,    6)  5AA 7AB 
    *  12    0.013519  (    6,    4)  5AB 7AA 
    *  13    0.012254  (    8,    3)  4AB 9AA 
    *  14   -0.012254  (    3,    8)  4AA 9AB 
    *  15    0.007111  (    9,    7)  8AB 10AA 
    *  16   -0.007111  (    7,    9)  8AA 10AB 
    *  17   -0.006233  (    0,    5)  1AA 6AB 
    *  18    0.006233  (    5,    0)  1AB 6AA 
    *  19    0.005139  (    1,    8)  2AA 9AB 
    *  20   -0.005139  (    8,    1)  2AB 9AA 


   ==> DETCI root 26 information <==

    DETCI Root 26 energy =     1.724885514798005

   The 20 most important determinants:

    *   1   -0.680934  (    2,    5)  3AA 6AB 
    *   2    0.680934  (    5,    2)  3AB 6AA 
    *   3   -0.183126  (    2,    4)  3AA 5AB 
    *   4    0.183126  (    4,    2)  3AB 5AA 
    *   5    0.039009  (    3,    8)  4AA 9AB 
    *   6   -0.039009  (    8,    3)  4AB 9AA 
    *   7   -0.023178  (    5,    0)  1AB 6AA 
    *   8    0.023178  (    0,    5)  1AA 6AB 
    *   9   -0.016360  (    1,    8)  2AA 9AB 
    *  10    0.016360  (    8,    1)  2AB 9AA 
    *  11   -0.013519  (    5,    6)  6AA 7AB 
    *  12    0.013519  (    6,    5)  6AB 7AA 
    *  13    0.012254  (    3,    7)  4AA 8AB 
    *  14   -0.012254  (    7,    3)  4AB 8AA 
    *  15    0.007111  (    9,    8)  9AB 10AA 
    *  16   -0.007111  (    8,    9)  9AA 10AB 
    *  17   -0.006233  (    4,    0)  1AB 5AA 
    *  18    0.006233  (    0,    4)  1AA 5AB 
    *  19    0.005139  (    7,    1)  2AB 8AA 
    *  20   -0.005139  (    1,    7)  2AA 8AB 


   ==> DETCI root 27 information <==

    DETCI Root 27 energy =     1.727138287244038

   The 20 most important determinants:

    *   1    0.697849  (    0,    7)  1AA 8AB 
    *   2   -0.697849  (    7,    0)  1AB 8AA 
    *   3    0.072351  (    1,    4)  2AA 5AB 
    *   4   -0.072351  (    4,    1)  2AB 5AA 
    *   5   -0.065231  (    3,    4)  4AA 5AB 
    *   6    0.065231  (    4,    3)  4AB 5AA 
    *   7   -0.050971  (    0,    8)  1AA 9AB 
    *   8    0.050971  (    8,    0)  1AB 9AA 
    *   9    0.029962  (    2,    7)  3AA 8AB 
    *  10   -0.029962  (    7,    2)  3AB 8AA 
    *  11   -0.002457  (    6,    7)  7AA 8AB 
    *  12    0.002457  (    7,    6)  7AB 8AA 
    *  13   -0.002262  (    1,    5)  2AA 6AB 
    *  14    0.002262  (    5,    1)  2AB 6AA 
    *  15   -0.002188  (    2,    8)  3AA 9AB 
    *  16    0.002188  (    8,    2)  3AB 9AA 
    *  17   -0.002039  (    5,    3)  4AB 6AA 
    *  18    0.002039  (    3,    5)  4AA 6AB 
    *  19   -0.000795  (    9,    4)  5AB 10AA 
    *  20    0.000795  (    4,    9)  5AA 10AB 


   ==> DETCI root 28 information <==

    DETCI Root 28 energy =     1.727138287244041

   The 20 most important determinants:

    *   1   -0.697849  (    0,    8)  1AA 9AB 
    *   2    0.697849  (    8,    0)  1AB 9AA 
    *   3   -0.072351  (    1,    5)  2AA 6AB 
    *   4    0.072351  (    5,    1)  2AB 6AA 
    *   5    0.065231  (    3,    5)  4AA 6AB 
    *   6   -0.065231  (    5,    3)  4AB 6AA 
    *   7   -0.050971  (    0,    7)  1AA 8AB 
    *   8    0.050971  (    7,    0)  1AB 8AA 
    *   9   -0.029962  (    2,    8)  3AA 9AB 
    *  10    0.029962  (    8,    2)  3AB 9AA 
    *  11    0.002457  (    6,    8)  7AA 9AB 
    *  12   -0.002457  (    8,    6)  7AB 9AA 
    *  13   -0.002262  (    1,    4)  2AA 5AB 
    *  14    0.002262  (    4,    1)  2AB 5AA 
    *  15   -0.002188  (    2,    7)  3AA 8AB 
    *  16    0.002188  (    7,    2)  3AB 8AA 
    *  17    0.002039  (    3,    4)  4AA 5AB 
    *  18   -0.002039  (    4,    3)  4AB 5AA 
    *  19    0.000795  (    9,    5)  6AB 10AA 
    *  20   -0.000795  (    5,    9)  6AA 10AB 


   ==> DETCI root 29 information <==

    DETCI Root 29 energy =     1.775830521127038

   The 20 most important determinants:

    *   1    0.701612  (    4,    2)  3AB 5AA 
    *   2    0.701612  (    2,    4)  3AA 5AB 
    *   3   -0.065944  (    7,    3)  4AB 8AA 
    *   4   -0.065944  (    3,    7)  4AA 8AB 
    *   5   -0.039723  (    2,    5)  3AA 6AB 
    *   6   -0.039723  (    5,    2)  3AB 6AA 
    *   7    0.036782  (    0,    4)  1AA 5AB 
    *   8    0.036782  (    4,    0)  1AB 5AA 
    *   9   -0.015912  (    1,    7)  2AA 8AB 
    *  10   -0.015912  (    7,    1)  2AB 8AA 
    *  11   -0.011772  (    7,    9)  8AA 10AB 
    *  12   -0.011772  (    9,    7)  8AB 10AA 
    *  13    0.006497  (    3,    8)  4AA 9AB 
    *  14    0.006497  (    8,    3)  4AB 9AA 
    *  15    0.004299  (    6,    4)  5AB 7AA 
    *  16    0.004299  (    4,    6)  5AA 7AB 
    *  17   -0.002082  (    5,    0)  1AB 6AA 
    *  18   -0.002082  (    0,    5)  1AA 6AB 
    *  19    0.001568  (    8,    1)  2AB 9AA 
    *  20    0.001568  (    1,    8)  2AA 9AB 


   ==> DETCI root 30 information <==

    DETCI Root 30 energy =     1.775830521127042

   The 20 most important determinants:

    *   1   -0.701612  (    5,    2)  3AB 6AA 
    *   2   -0.701612  (    2,    5)  3AA 6AB 
    *   3    0.065944  (    8,    3)  4AB 9AA 
    *   4    0.065944  (    3,    8)  4AA 9AB 
    *   5   -0.039723  (    4,    2)  3AB 5AA 
    *   6   -0.039723  (    2,    4)  3AA 5AB 
    *   7   -0.036782  (    0,    5)  1AA 6AB 
    *   8   -0.036782  (    5,    0)  1AB 6AA 
    *   9    0.015912  (    1,    8)  2AA 9AB 
    *  10    0.015912  (    8,    1)  2AB 9AA 
    *  11    0.011772  (    8,    9)  9AA 10AB 
    *  12    0.011772  (    9,    8)  9AB 10AA 
    *  13    0.006497  (    7,    3)  4AB 8AA 
    *  14    0.006497  (    3,    7)  4AA 8AB 
    *  15   -0.004299  (    6,    5)  6AB 7AA 
    *  16   -0.004299  (    5,    6)  6AA 7AB 
    *  17   -0.002082  (    0,    4)  1AA 5AB 
    *  18   -0.002082  (    4,    0)  1AB 5AA 
    *  19    0.001568  (    7,    1)  2AB 8AA 
    *  20    0.001568  (    1,    7)  2AA 8AB 


   ==> DETCI root 31 information <==

    DETCI Root 31 energy =     1.812043799159477

   The 20 most important determinants:

    *   1    0.600191  (    7,    0)  1AB 8AA 
    *   2    0.600191  (    0,    7)  1AA 8AB 
    *   3   -0.282772  (    4,    3)  4AB 5AA 
    *   4   -0.282772  (    3,    4)  4AA 5AB 
    *   5    0.212306  (    4,    1)  2AB 5AA 
    *   6    0.212306  (    1,    4)  2AA 5AB 
    *   7   -0.104053  (    8,    0)  1AB 9AA 
    *   8   -0.104053  (    0,    8)  1AA 9AB 
    *   9    0.036970  (    3,    5)  4AA 6AB 
    *  10    0.036970  (    5,    3)  4AB 6AA 
    *  11    0.035434  (    7,    2)  3AB 8AA 
    *  12    0.035434  (    2,    7)  3AA 8AB 
    *  13   -0.027757  (    5,    1)  2AB 6AA 
    *  14   -0.027757  (    1,    5)  2AA 6AB 
    *  15   -0.018558  (    4,    9)  5AA 10AB 
    *  16   -0.018558  (    9,    4)  5AB 10AA 
    *  17   -0.011204  (    7,    6)  7AB 8AA 
    *  18   -0.011204  (    6,    7)  7AA 8AB 
    *  19   -0.006143  (    8,    2)  3AB 9AA 
    *  20   -0.006143  (    2,    8)  3AA 9AB 


   ==> DETCI root 32 information <==

    DETCI Root 32 energy =     1.812043799159480

   The 20 most important determinants:

    *   1   -0.600191  (    8,    0)  1AB 9AA 
    *   2   -0.600191  (    0,    8)  1AA 9AB 
    *   3    0.282772  (    5,    3)  4AB 6AA 
    *   4    0.282772  (    3,    5)  4AA 6AB 
    *   5   -0.212306  (    5,    1)  2AB 6AA 
    *   6   -0.212306  (    1,    5)  2AA 6AB 
    *   7   -0.104053  (    7,    0)  1AB 8AA 
    *   8   -0.104053  (    0,    7)  1AA 8AB 
    *   9    0.036970  (    4,    3)  4AB 5AA 
    *  10    0.036970  (    3,    4)  4AA 5AB 
    *  11   -0.035434  (    8,    2)  3AB 9AA 
    *  12   -0.035434  (    2,    8)  3AA 9AB 
    *  13   -0.027757  (    4,    1)  2AB 5AA 
    *  14   -0.027757  (    1,    4)  2AA 5AB 
    *  15    0.018558  (    5,    9)  6AA 10AB 
    *  16    0.018558  (    9,    5)  6AB 10AA 
    *  17    0.011204  (    8,    6)  7AB 9AA 
    *  18    0.011204  (    6,    8)  7AA 9AB 
    *  19   -0.006143  (    7,    2)  3AB 8AA 
    *  20   -0.006143  (    2,    7)  3AA 8AB 


   ==> DETCI root 33 information <==

    DETCI Root 33 energy =     1.818284023271027

   The 20 most important determinants:

    *   1    0.798800  (    3,    3)  4AX 
    *   2    0.394785  (    0,    6)  1AA 7AB 
    *   3    0.394785  (    6,    0)  1AB 7AA 
    *   4   -0.131430  (    2,    6)  3AA 7AB 
    *   5   -0.131430  (    6,    2)  3AB 7AA 
    *   6    0.053328  (    1,    1)  2AX 
    *   7   -0.048674  (    6,    6)  7AX 
    *   8    0.041321  (    2,    0)  1AB 3AA 
    *   9    0.041321  (    0,    2)  1AA 3AB 
    *  10    0.035653  (    0,    0)  1AX 
    *  11    0.034743  (    2,    2)  3AX 
    *  12    0.030650  (    9,    3)  4AB 10AA 
    *  13    0.030650  (    3,    9)  4AA 10AB 
    *  14   -0.027374  (    7,    7)  8AX 
    *  15   -0.027374  (    8,    8)  9AX 
    *  16   -0.019459  (    5,    5)  6AX 
    *  17   -0.019459  (    4,    4)  5AX 
    *  18   -0.014799  (    9,    9)  10AX 
    *  19    0.009960  (    1,    9)  2AA 10AB 
    *  20    0.009960  (    9,    1)  2AB 10AA 


   ==> DETCI root 34 information <==

    DETCI Root 34 energy =     1.974777353118410

   The 20 most important determinants:

    *   1   -0.698123  (    6,    1)  2AB 7AA 
    *   2    0.698123  (    1,    6)  2AA 7AB 
    *   3   -0.095978  (    6,    3)  4AB 7AA 
    *   4    0.095978  (    3,    6)  4AA 7AB 
    *   5   -0.036807  (    2,    1)  2AB 3AA 
    *   6    0.036807  (    1,    2)  2AA 3AB 
    *   7   -0.032171  (    9,    0)  1AB 10AA 
    *   8    0.032171  (    0,    9)  1AA 10AB 
    *   9   -0.027128  (    3,    0)  1AB 4AA 
    *  10    0.027128  (    0,    3)  1AA 4AB 
    *  11   -0.008620  (    9,    6)  7AB 10AA 
    *  12    0.008620  (    6,    9)  7AA 10AB 
    *  13    0.007854  (    8,    5)  6AB 9AA 
    *  14   -0.007854  (    5,    8)  6AA 9AB 
    *  15    0.007854  (    7,    4)  5AB 8AA 
    *  16   -0.007854  (    4,    7)  5AA 8AB 
    *  17   -0.007356  (    2,    9)  3AA 10AB 
    *  18    0.007356  (    9,    2)  3AB 10AA 
    *  19    0.005806  (    2,    3)  3AA 4AB 
    *  20   -0.005806  (    3,    2)  3AB 4AA 


   ==> DETCI root 35 information <==

    DETCI Root 35 energy =     2.092710174978802

   The 20 most important determinants:

    *   1   -0.700725  (    1,    6)  2AA 7AB 
    *   2   -0.700725  (    6,    1)  2AB 7AA 
    *   3   -0.067078  (    9,    0)  1AB 10AA 
    *   4   -0.067078  (    0,    9)  1AA 10AB 
    *   5   -0.034185  (    0,    3)  1AA 4AB 
    *   6   -0.034185  (    3,    0)  1AB 4AA 
    *   7   -0.033361  (    1,    2)  2AA 3AB 
    *   8   -0.033361  (    2,    1)  2AB 3AA 
    *   9   -0.027691  (    1,    0)  1AB 2AA 
    *  10   -0.027691  (    0,    1)  1AA 2AB 
    *  11    0.023257  (    6,    3)  4AB 7AA 
    *  12    0.023257  (    3,    6)  4AA 7AB 
    *  13   -0.019508  (    6,    9)  7AA 10AB 
    *  14   -0.019508  (    9,    6)  7AB 10AA 
    *  15    0.014141  (    8,    5)  6AB 9AA 
    *  16    0.014141  (    5,    8)  6AA 9AB 
    *  17    0.014141  (    7,    4)  5AB 8AA 
    *  18    0.014141  (    4,    7)  5AA 8AB 
    *  19    0.009354  (    3,    2)  3AB 4AA 
    *  20    0.009354  (    2,    3)  3AA 4AB 


   ==> DETCI root 36 information <==

    DETCI Root 36 energy =     2.175146120112554

   The 20 most important determinants:

    *   1    0.681310  (    4,    3)  4AB 5AA 
    *   2   -0.681310  (    3,    4)  4AA 5AB 
    *   3    0.129101  (    3,    5)  4AA 6AB 
    *   4   -0.129101  (    5,    3)  4AB 6AA 
    *   5   -0.093282  (    7,    2)  3AB 8AA 
    *   6    0.093282  (    2,    7)  3AA 8AB 
    *   7    0.072726  (    7,    0)  1AB 8AA 
    *   8   -0.072726  (    0,    7)  1AA 8AB 
    *   9    0.056699  (    1,    4)  2AA 5AB 
    *  10   -0.056699  (    4,    1)  2AB 5AA 
    *  11   -0.028329  (    7,    6)  7AB 8AA 
    *  12    0.028329  (    6,    7)  7AA 8AB 
    *  13   -0.021735  (    2,    8)  3AA 9AB 
    *  14    0.021735  (    8,    2)  3AB 9AA 
    *  15    0.016946  (    0,    8)  1AA 9AB 
    *  16   -0.016946  (    8,    0)  1AB 9AA 
    *  17   -0.014684  (    9,    4)  5AB 10AA 
    *  18    0.014684  (    4,    9)  5AA 10AB 
    *  19   -0.010744  (    1,    5)  2AA 6AB 
    *  20    0.010744  (    5,    1)  2AB 6AA 


   ==> DETCI root 37 information <==

    DETCI Root 37 energy =     2.175146120112559

   The 20 most important determinants:

    *   1   -0.681310  (    5,    3)  4AB 6AA 
    *   2    0.681310  (    3,    5)  4AA 6AB 
    *   3   -0.129101  (    4,    3)  4AB 5AA 
    *   4    0.129101  (    3,    4)  4AA 5AB 
    *   5    0.093282  (    8,    2)  3AB 9AA 
    *   6   -0.093282  (    2,    8)  3AA 9AB 
    *   7   -0.072726  (    8,    0)  1AB 9AA 
    *   8    0.072726  (    0,    8)  1AA 9AB 
    *   9    0.056699  (    5,    1)  2AB 6AA 
    *  10   -0.056699  (    1,    5)  2AA 6AB 
    *  11   -0.028329  (    6,    8)  7AA 9AB 
    *  12    0.028329  (    8,    6)  7AB 9AA 
    *  13    0.021735  (    7,    2)  3AB 8AA 
    *  14   -0.021735  (    2,    7)  3AA 8AB 
    *  15   -0.016946  (    7,    0)  1AB 8AA 
    *  16    0.016946  (    0,    7)  1AA 8AB 
    *  17    0.014684  (    9,    5)  6AB 10AA 
    *  18   -0.014684  (    5,    9)  6AA 10AB 
    *  19   -0.010744  (    1,    4)  2AA 5AB 
    *  20    0.010744  (    4,    1)  2AB 5AA 


   ==> DETCI root 38 information <==

    DETCI Root 38 energy =     2.232860669368353

   The 20 most important determinants:

    *   1   -0.698340  (    7,    1)  2AB 8AA 
    *   2    0.698340  (    1,    7)  2AA 8AB 
    *   3    0.081212  (    3,    7)  4AA 8AB 
    *   4   -0.081212  (    7,    3)  4AB 8AA 
    *   5    0.054688  (    1,    8)  2AA 9AB 
    *   6   -0.054688  (    8,    1)  2AB 9AA 
    *   7   -0.035385  (    4,    0)  1AB 5AA 
    *   8    0.035385  (    0,    4)  1AA 5AB 
    *   9    0.035128  (    4,    6)  5AA 7AB 
    *  10   -0.035128  (    6,    4)  5AB 7AA 
    *  11   -0.011654  (    2,    4)  3AA 5AB 
    *  12    0.011654  (    4,    2)  3AB 5AA 
    *  13   -0.006360  (    8,    3)  4AB 9AA 
    *  14    0.006360  (    3,    8)  4AA 9AB 
    *  15    0.005864  (    9,    7)  8AB 10AA 
    *  16   -0.005864  (    7,    9)  8AA 10AB 
    *  17   -0.004260  (    5,    0)  1AB 6AA 
    *  18    0.004260  (    0,    5)  1AA 6AB 
    *  19    0.004229  (    5,    6)  6AA 7AB 
    *  20   -0.004229  (    6,    5)  6AB 7AA 


   ==> DETCI root 39 information <==

    DETCI Root 39 energy =     2.232860669368358

   The 20 most important determinants:

    *   1   -0.698340  (    8,    1)  2AB 9AA 
    *   2    0.698340  (    1,    8)  2AA 9AB 
    *   3   -0.081212  (    8,    3)  4AB 9AA 
    *   4    0.081212  (    3,    8)  4AA 9AB 
    *   5    0.054688  (    7,    1)  2AB 8AA 
    *   6   -0.054688  (    1,    7)  2AA 8AB 
    *   7   -0.035385  (    5,    0)  1AB 6AA 
    *   8    0.035385  (    0,    5)  1AA 6AB 
    *   9    0.035128  (    5,    6)  6AA 7AB 
    *  10   -0.035128  (    6,    5)  6AB 7AA 
    *  11    0.011654  (    5,    2)  3AB 6AA 
    *  12   -0.011654  (    2,    5)  3AA 6AB 
    *  13    0.006360  (    7,    3)  4AB 8AA 
    *  14   -0.006360  (    3,    7)  4AA 8AB 
    *  15   -0.005864  (    8,    9)  9AA 10AB 
    *  16    0.005864  (    9,    8)  9AB 10AA 
    *  17    0.004260  (    4,    0)  1AB 5AA 
    *  18   -0.004260  (    0,    4)  1AA 5AB 
    *  19   -0.004229  (    4,    6)  5AA 7AB 
    *  20    0.004229  (    6,    4)  5AB 7AA 


   ==> DETCI root 40 information <==

    DETCI Root 40 energy =     2.311637560900356

   The 20 most important determinants:

    *   1   -0.598744  (    3,    4)  4AA 5AB 
    *   2   -0.598744  (    4,    3)  4AB 5AA 
    *   3   -0.280140  (    7,    0)  1AB 8AA 
    *   4   -0.280140  (    0,    7)  1AA 8AB 
    *   5    0.205266  (    7,    2)  3AB 8AA 
    *   6    0.205266  (    2,    7)  3AA 8AB 
    *   7    0.111429  (    5,    3)  4AB 6AA 
    *   8    0.111429  (    3,    5)  4AA 6AB 
    *   9    0.064310  (    8,    0)  1AB 9AA 
    *  10    0.064310  (    0,    8)  1AA 9AB 
    *  11   -0.047122  (    2,    8)  3AA 9AB 
    *  12   -0.047122  (    8,    2)  3AB 9AA 
    *  13    0.036286  (    6,    7)  7AA 8AB 
    *  14    0.036286  (    7,    6)  7AB 8AA 
    *  15   -0.026560  (    4,    1)  2AB 5AA 
    *  16   -0.026560  (    1,    4)  2AA 5AB 
    *  17   -0.008330  (    8,    6)  7AB 9AA 
    *  18   -0.008330  (    6,    8)  7AA 9AB 
    *  19    0.004943  (    5,    1)  2AB 6AA 
    *  20    0.004943  (    1,    5)  2AA 6AB 


   ==> DETCI root 41 information <==

    DETCI Root 41 energy =     2.311637560900360

   The 20 most important determinants:

    *   1    0.598744  (    3,    5)  4AA 6AB 
    *   2    0.598744  (    5,    3)  4AB 6AA 
    *   3    0.280140  (    8,    0)  1AB 9AA 
    *   4    0.280140  (    0,    8)  1AA 9AB 
    *   5   -0.205266  (    2,    8)  3AA 9AB 
    *   6   -0.205266  (    8,    2)  3AB 9AA 
    *   7    0.111429  (    3,    4)  4AA 5AB 
    *   8    0.111429  (    4,    3)  4AB 5AA 
    *   9    0.064310  (    7,    0)  1AB 8AA 
    *  10    0.064310  (    0,    7)  1AA 8AB 
    *  11   -0.047122  (    7,    2)  3AB 8AA 
    *  12   -0.047122  (    2,    7)  3AA 8AB 
    *  13   -0.036286  (    6,    8)  7AA 9AB 
    *  14   -0.036286  (    8,    6)  7AB 9AA 
    *  15    0.026560  (    5,    1)  2AB 6AA 
    *  16    0.026560  (    1,    5)  2AA 6AB 
    *  17   -0.008330  (    7,    6)  7AB 8AA 
    *  18   -0.008330  (    6,    7)  7AA 8AB 
    *  19    0.004943  (    4,    1)  2AB 5AA 
    *  20    0.004943  (    1,    4)  2AA 5AB 


   ==> DETCI root 42 information <==

    DETCI Root 42 energy =     2.334313920755776

   The 20 most important determinants:

    *   1   -0.699788  (    1,    7)  2AA 8AB 
    *   2   -0.699788  (    7,    1)  2AB 8AA 
    *   3   -0.071950  (    0,    4)  1AA 5AB 
    *   4   -0.071950  (    4,    0)  1AB 5AA 
    *   5    0.049521  (    4,    6)  5AA 7AB 
    *   6    0.049521  (    6,    4)  5AB 7AA 
    *   7   -0.048673  (    8,    1)  2AB 9AA 
    *   8   -0.048673  (    1,    8)  2AA 9AB 
    *   9   -0.011613  (    4,    2)  3AB 5AA 
    *  10   -0.011613  (    2,    4)  3AA 5AB 
    *  11   -0.008026  (    5,    0)  1AB 6AA 
    *  12   -0.008026  (    0,    5)  1AA 6AB 
    *  13    0.007927  (    7,    3)  4AB 8AA 
    *  14    0.007927  (    3,    7)  4AA 8AB 
    *  15    0.005524  (    5,    6)  6AA 7AB 
    *  16    0.005524  (    6,    5)  6AB 7AA 
    *  17    0.002139  (    7,    9)  8AA 10AB 
    *  18    0.002139  (    9,    7)  8AB 10AA 
    *  19   -0.001296  (    2,    5)  3AA 6AB 
    *  20   -0.001296  (    5,    2)  3AB 6AA 


   ==> DETCI root 43 information <==

    DETCI Root 43 energy =     2.334313920755780

   The 20 most important determinants:

    *   1   -0.699788  (    1,    8)  2AA 9AB 
    *   2   -0.699788  (    8,    1)  2AB 9AA 
    *   3   -0.071950  (    0,    5)  1AA 6AB 
    *   4   -0.071950  (    5,    0)  1AB 6AA 
    *   5    0.049521  (    6,    5)  6AB 7AA 
    *   6    0.049521  (    5,    6)  6AA 7AB 
    *   7    0.048673  (    1,    7)  2AA 8AB 
    *   8    0.048673  (    7,    1)  2AB 8AA 
    *   9   -0.011613  (    5,    2)  3AB 6AA 
    *  10   -0.011613  (    2,    5)  3AA 6AB 
    *  11    0.008026  (    4,    0)  1AB 5AA 
    *  12    0.008026  (    0,    4)  1AA 5AB 
    *  13    0.007927  (    8,    3)  4AB 9AA 
    *  14    0.007927  (    3,    8)  4AA 9AB 
    *  15   -0.005524  (    6,    4)  5AB 7AA 
    *  16   -0.005524  (    4,    6)  5AA 7AB 
    *  17    0.002139  (    8,    9)  9AA 10AB 
    *  18    0.002139  (    9,    8)  9AB 10AA 
    *  19    0.001296  (    4,    2)  3AB 5AA 
    *  20    0.001296  (    2,    4)  3AA 5AB 


   ==> DETCI root 44 information <==

    DETCI Root 44 energy =     2.442702424594941

   The 20 most important determinants:

    *   1    0.705334  (    6,    2)  3AB 7AA 
    *   2   -0.705334  (    2,    6)  3AA 7AB 
    *   3    0.032949  (    9,    3)  4AB 10AA 
    *   4   -0.032949  (    3,    9)  4AA 10AB 
    *   5    0.026302  (    0,    6)  1AA 7AB 
    *   6   -0.026302  (    6,    0)  1AB 7AA 
    *   7    0.023074  (    1,    3)  2AA 4AB 
    *   8   -0.023074  (    3,    1)  2AB 4AA 
    *   9   -0.013704  (    2,    0)  1AB 3AA 
    *  10    0.013704  (    0,    2)  1AA 3AB 
    *  11   -0.002570  (    9,    1)  2AB 10AA 
    *  12    0.002570  (    1,    9)  2AA 10AB 


   ==> DETCI root 45 information <==

    DETCI Root 45 energy =     2.558223261784995

   The 20 most important determinants:

    *   1   -0.689643  (    2,    6)  3AA 7AB 
    *   2   -0.689643  (    6,    2)  3AB 7AA 
    *   3   -0.156299  (    3,    3)  4AX 
    *   4   -0.067598  (    6,    0)  1AB 7AA 
    *   5   -0.067598  (    0,    6)  1AA 7AB 
    *   6   -0.064934  (    4,    4)  5AX 
    *   7   -0.064934  (    5,    5)  6AX 
    *   8   -0.045197  (    2,    2)  3AX 
    *   9    0.041816  (    6,    6)  7AX 
    *  10   -0.025511  (    9,    3)  4AB 10AA 
    *  11   -0.025511  (    3,    9)  4AA 10AB 
    *  12    0.018299  (    8,    8)  9AX 
    *  13    0.018299  (    7,    7)  8AX 
    *  14   -0.017730  (    3,    1)  2AB 4AA 
    *  15   -0.017730  (    1,    3)  2AA 4AB 
    *  16    0.012975  (    9,    1)  2AB 10AA 
    *  17    0.012975  (    1,    9)  2AA 10AB 
    *  18   -0.006198  (    9,    9)  10AX 
    *  19    0.002865  (    0,    0)  1AX 
    *  20    0.001963  (    2,    0)  1AB 3AA 


   ==> DETCI root 46 information <==

    DETCI Root 46 energy =     2.712878808261123

   The 20 most important determinants:

    *   1    0.683270  (    7,    2)  3AB 8AA 
    *   2   -0.683270  (    2,    7)  3AA 8AB 
    *   3    0.150092  (    8,    2)  3AB 9AA 
    *   4   -0.150092  (    2,    8)  3AA 9AB 
    *   5    0.093123  (    4,    3)  4AB 5AA 
    *   6   -0.093123  (    3,    4)  4AA 5AB 
    *   7    0.024562  (    5,    3)  4AB 6AA 
    *   8   -0.024562  (    3,    5)  4AA 6AB 
    *   9   -0.023375  (    7,    6)  7AB 8AA 
    *  10    0.023375  (    6,    7)  7AA 8AB 
    *  11    0.018780  (    0,    7)  1AA 8AB 
    *  12   -0.018780  (    7,    0)  1AB 8AA 
    *  13    0.017924  (    1,    4)  2AA 5AB 
    *  14   -0.017924  (    4,    1)  2AB 5AA 
    *  15   -0.007028  (    4,    9)  5AA 10AB 
    *  16    0.007028  (    9,    4)  5AB 10AA 
    *  17   -0.005135  (    8,    6)  7AB 9AA 
    *  18    0.005135  (    6,    8)  7AA 9AB 
    *  19    0.004728  (    1,    5)  2AA 6AB 
    *  20   -0.004728  (    5,    1)  2AB 6AA 


   ==> DETCI root 47 information <==

    DETCI Root 47 energy =     2.712878808261125

   The 20 most important determinants:

    *   1    0.683270  (    8,    2)  3AB 9AA 
    *   2   -0.683270  (    2,    8)  3AA 9AB 
    *   3    0.150092  (    2,    7)  3AA 8AB 
    *   4   -0.150092  (    7,    2)  3AB 8AA 
    *   5    0.093123  (    5,    3)  4AB 6AA 
    *   6   -0.093123  (    3,    5)  4AA 6AB 
    *   7    0.024562  (    3,    4)  4AA 5AB 
    *   8   -0.024562  (    4,    3)  4AB 5AA 
    *   9   -0.023375  (    8,    6)  7AB 9AA 
    *  10    0.023375  (    6,    8)  7AA 9AB 
    *  11    0.018780  (    0,    8)  1AA 9AB 
    *  12   -0.018780  (    8,    0)  1AB 9AA 
    *  13    0.017924  (    1,    5)  2AA 6AB 
    *  14   -0.017924  (    5,    1)  2AB 6AA 
    *  15   -0.007028  (    5,    9)  6AA 10AB 
    *  16    0.007028  (    9,    5)  6AB 10AA 
    *  17   -0.005135  (    6,    7)  7AA 8AB 
    *  18    0.005135  (    7,    6)  7AB 8AA 
    *  19    0.004728  (    4,    1)  2AB 5AA 
    *  20   -0.004728  (    1,    4)  2AA 5AB 


   ==> DETCI root 48 information <==

    DETCI Root 48 energy =     2.756123222366377

   The 20 most important determinants:

    *   1    0.705520  (    4,    5)  5AA 6AB 
    *   2   -0.705520  (    5,    4)  5AB 6AA 
    *   3   -0.047348  (    7,    8)  8AA 9AB 
    *   4    0.047348  (    8,    7)  8AB 9AA 


   ==> DETCI root 49 information <==

    DETCI Root 49 energy =     2.770904110562607

   The 20 most important determinants:

    *   1   -0.672425  (    2,    7)  3AA 8AB 
    *   2   -0.672425  (    7,    2)  3AB 8AA 
    *   3   -0.204422  (    3,    4)  4AA 5AB 
    *   4   -0.204422  (    4,    3)  4AB 5AA 
    *   5   -0.052702  (    7,    0)  1AB 8AA 
    *   6   -0.052702  (    0,    7)  1AA 8AB 
    *   7    0.040897  (    6,    7)  7AA 8AB 
    *   8    0.040897  (    7,    6)  7AB 8AA 
    *   9   -0.028375  (    2,    8)  3AA 9AB 
    *  10   -0.028375  (    8,    2)  3AB 9AA 
    *  11    0.021389  (    9,    4)  5AB 10AA 
    *  12    0.021389  (    4,    9)  5AA 10AB 
    *  13   -0.017176  (    3,    5)  4AA 6AB 
    *  14   -0.017176  (    5,    3)  4AB 6AA 
    *  15   -0.006046  (    4,    1)  2AB 5AA 
    *  16   -0.006046  (    1,    4)  2AA 5AB 
    *  17   -0.002224  (    8,    0)  1AB 9AA 
    *  18   -0.002224  (    0,    8)  1AA 9AB 
    *  19    0.001797  (    5,    9)  6AA 10AB 
    *  20    0.001797  (    9,    5)  6AB 10AA 


   ==> DETCI root 50 information <==

    DETCI Root 50 energy =     2.770904110562609

   The 20 most important determinants:

    *   1   -0.672425  (    2,    8)  3AA 9AB 
    *   2   -0.672425  (    8,    2)  3AB 9AA 
    *   3   -0.204422  (    3,    5)  4AA 6AB 
    *   4   -0.204422  (    5,    3)  4AB 6AA 
    *   5   -0.052702  (    8,    0)  1AB 9AA 
    *   6   -0.052702  (    0,    8)  1AA 9AB 
    *   7    0.040897  (    6,    8)  7AA 9AB 
    *   8    0.040897  (    8,    6)  7AB 9AA 
    *   9    0.028375  (    2,    7)  3AA 8AB 
    *  10    0.028375  (    7,    2)  3AB 8AA 
    *  11    0.021389  (    9,    5)  6AB 10AA 
    *  12    0.021389  (    5,    9)  6AA 10AB 
    *  13    0.017176  (    3,    4)  4AA 5AB 
    *  14    0.017176  (    4,    3)  4AB 5AA 
    *  15   -0.006046  (    5,    1)  2AB 6AA 
    *  16   -0.006046  (    1,    5)  2AA 6AB 
    *  17    0.002224  (    7,    0)  1AB 8AA 
    *  18    0.002224  (    0,    7)  1AA 8AB 
    *  19   -0.001797  (    9,    4)  5AB 10AA 
    *  20   -0.001797  (    4,    9)  5AA 10AB 


   ==> DETCI root 51 information <==

    DETCI Root 51 energy =     2.827271035448742

   The 20 most important determinants:

    *   1   -0.596897  (    4,    4)  5AX 
    *   2    0.596897  (    5,    5)  6AX 
    *   3    0.373361  (    5,    4)  5AB 6AA 
    *   4    0.373361  (    4,    5)  5AA 6AB 
    *   5    0.052603  (    7,    7)  8AX 
    *   6   -0.052603  (    8,    8)  9AX 
    *   7   -0.039352  (    8,    7)  8AB 9AA 
    *   8   -0.039352  (    7,    8)  8AA 9AB 


   ==> DETCI root 52 information <==

    DETCI Root 52 energy =     2.827271035448742

   The 20 most important determinants:

    *   1    0.596897  (    5,    4)  5AB 6AA 
    *   2    0.596897  (    4,    5)  5AA 6AB 
    *   3    0.373361  (    4,    4)  5AX 
    *   4   -0.373361  (    5,    5)  6AX 
    *   5   -0.052603  (    8,    7)  8AB 9AA 
    *   6   -0.052603  (    7,    8)  8AA 9AB 
    *   7   -0.039352  (    7,    7)  8AX 
    *   8    0.039352  (    8,    8)  9AX 


   ==> DETCI root 53 information <==

    DETCI Root 53 energy =     2.875494473820178

   The 20 most important determinants:

    *   1   -0.696441  (    6,    3)  4AB 7AA 
    *   2    0.696441  (    3,    6)  4AA 7AB 
    *   3    0.097824  (    6,    1)  2AB 7AA 
    *   4   -0.097824  (    1,    6)  2AA 7AB 
    *   5   -0.058334  (    9,    0)  1AB 10AA 
    *   6    0.058334  (    0,    9)  1AA 10AB 
    *   7   -0.026887  (    9,    2)  3AB 10AA 
    *   8    0.026887  (    2,    9)  3AA 10AB 
    *   9   -0.020050  (    4,    7)  5AA 8AB 
    *  10   -0.020050  (    5,    8)  6AA 9AB 
    *  11    0.020050  (    8,    5)  6AB 9AA 
    *  12    0.020050  (    7,    4)  5AB 8AA 
    *  13    0.018725  (    2,    1)  2AB 3AA 
    *  14   -0.018725  (    1,    2)  2AA 3AB 
    *  15    0.009105  (    0,    1)  1AA 2AB 
    *  16   -0.009105  (    1,    0)  1AB 2AA 
    *  17   -0.004260  (    3,    0)  1AB 4AA 
    *  18    0.004260  (    0,    3)  1AA 4AB 
    *  19   -0.003503  (    3,    2)  3AB 4AA 
    *  20    0.003503  (    2,    3)  3AA 4AB 


   ==> DETCI root 54 information <==

    DETCI Root 54 energy =     2.910496038977384

   The 20 most important determinants:

    *   1   -0.695035  (    5,    5)  6AX 
    *   2   -0.695035  (    4,    4)  5AX 
    *   3    0.084365  (    8,    8)  9AX 
    *   4    0.084365  (    7,    7)  8AX 
    *   5    0.069701  (    6,    2)  3AB 7AA 
    *   6    0.069701  (    2,    6)  3AA 7AB 
    *   7    0.048713  (    6,    6)  7AX 
    *   8   -0.042063  (    0,    0)  1AX 
    *   9    0.032236  (    6,    0)  1AB 7AA 
    *  10    0.032236  (    0,    6)  1AA 7AB 
    *  11   -0.030564  (    3,    3)  4AX 
    *  12   -0.020965  (    2,    0)  1AB 3AA 
    *  13   -0.020965  (    0,    2)  1AA 3AB 
    *  14    0.018711  (    9,    3)  4AB 10AA 
    *  15    0.018711  (    3,    9)  4AA 10AB 
    *  16    0.016506  (    1,    9)  2AA 10AB 
    *  17    0.016506  (    9,    1)  2AB 10AA 
    *  18   -0.015698  (    2,    2)  3AX 
    *  19   -0.011254  (    1,    3)  2AA 4AB 
    *  20   -0.011254  (    3,    1)  2AB 4AA 


   ==> DETCI root 55 information <==

    DETCI Root 55 energy =     3.059902443014293

   The 20 most important determinants:

    *   1    0.638810  (    3,    6)  4AA 7AB 
    *   2    0.638810  (    6,    3)  4AB 7AA 
    *   3    0.275544  (    9,    0)  1AB 10AA 
    *   4    0.275544  (    0,    9)  1AA 10AB 
    *   5    0.076672  (    3,    2)  3AB 4AA 
    *   6    0.076672  (    2,    3)  3AA 4AB 
    *   7   -0.047363  (    4,    7)  5AA 8AB 
    *   8   -0.047363  (    7,    4)  5AB 8AA 
    *   9   -0.047363  (    8,    5)  6AB 9AA 
    *  10   -0.047363  (    5,    8)  6AA 9AB 
    *  11    0.046708  (    2,    9)  3AA 10AB 
    *  12    0.046708  (    9,    2)  3AB 10AA 
    *  13    0.041413  (    6,    9)  7AA 10AB 
    *  14    0.041413  (    9,    6)  7AB 10AA 
    *  15    0.037068  (    0,    3)  1AA 4AB 
    *  16    0.037068  (    3,    0)  1AB 4AA 
    *  17    0.011851  (    1,    0)  1AB 2AA 
    *  18    0.011851  (    0,    1)  1AA 2AB 
    *  19    0.010917  (    1,    2)  2AA 3AB 
    *  20    0.010917  (    2,    1)  2AB 3AA 


   ==> DETCI root 56 information <==

    DETCI Root 56 energy =     3.134584799107267

   The 20 most important determinants:

    *   1   -0.680210  (    7,    3)  4AB 8AA 
    *   2    0.680210  (    3,    7)  4AA 8AB 
    *   3   -0.155488  (    6,    4)  5AB 7AA 
    *   4    0.155488  (    4,    6)  5AA 7AB 
    *   5    0.087416  (    7,    1)  2AB 8AA 
    *   6   -0.087416  (    1,    7)  2AA 8AB 
    *   7    0.054185  (    3,    8)  4AA 9AB 
    *   8   -0.054185  (    8,    3)  4AB 9AA 
    *   9   -0.039109  (    4,    2)  3AB 5AA 
    *  10    0.039109  (    2,    4)  3AA 5AB 
    *  11    0.018929  (    5,    6)  6AA 7AB 
    *  12   -0.018929  (    6,    5)  6AB 7AA 
    *  13   -0.018637  (    4,    0)  1AB 5AA 
    *  14    0.018637  (    0,    4)  1AA 5AB 
    *  15   -0.015740  (    7,    9)  8AA 10AB 
    *  16    0.015740  (    9,    7)  8AB 10AA 
    *  17    0.006963  (    8,    1)  2AB 9AA 
    *  18   -0.006963  (    1,    8)  2AA 9AB 
    *  19    0.004761  (    2,    5)  3AA 6AB 
    *  20   -0.004761  (    5,    2)  3AB 6AA 


   ==> DETCI root 57 information <==

    DETCI Root 57 energy =     3.134584799107268

   The 20 most important determinants:

    *   1   -0.680210  (    8,    3)  4AB 9AA 
    *   2    0.680210  (    3,    8)  4AA 9AB 
    *   3    0.155488  (    5,    6)  6AA 7AB 
    *   4   -0.155488  (    6,    5)  6AB 7AA 
    *   5    0.087416  (    8,    1)  2AB 9AA 
    *   6   -0.087416  (    1,    8)  2AA 9AB 
    *   7    0.054185  (    7,    3)  4AB 8AA 
    *   8   -0.054185  (    3,    7)  4AA 8AB 
    *   9   -0.039109  (    5,    2)  3AB 6AA 
    *  10    0.039109  (    2,    5)  3AA 6AB 
    *  11   -0.018929  (    4,    6)  5AA 7AB 
    *  12    0.018929  (    6,    4)  5AB 7AA 
    *  13   -0.018637  (    5,    0)  1AB 6AA 
    *  14    0.018637  (    0,    5)  1AA 6AB 
    *  15    0.015740  (    9,    8)  9AB 10AA 
    *  16   -0.015740  (    8,    9)  9AA 10AB 
    *  17    0.006963  (    1,    7)  2AA 8AB 
    *  18   -0.006963  (    7,    1)  2AB 8AA 
    *  19    0.004761  (    4,    2)  3AB 5AA 
    *  20   -0.004761  (    2,    4)  3AA 5AB 


   ==> DETCI root 58 information <==

    DETCI Root 58 energy =     3.254618865922570

   The 20 most important determinants:

    *   1   -0.568145  (    3,    7)  4AA 8AB 
    *   2   -0.568145  (    7,    3)  4AB 8AA 
    *   3    0.312023  (    3,    8)  4AA 9AB 
    *   4    0.312023  (    8,    3)  4AB 9AA 
    *   5    0.241607  (    4,    6)  5AA 7AB 
    *   6    0.241607  (    6,    4)  5AB 7AA 
    *   7   -0.119876  (    6,    5)  6AB 7AA 
    *   8   -0.119876  (    5,    6)  6AA 7AB 
    *   9   -0.053171  (    2,    4)  3AA 5AB 
    *  10   -0.053171  (    4,    2)  3AB 5AA 
    *  11   -0.050961  (    0,    4)  1AA 5AB 
    *  12   -0.050961  (    4,    0)  1AB 5AA 
    *  13    0.026382  (    2,    5)  3AA 6AB 
    *  14    0.026382  (    5,    2)  3AB 6AA 
    *  15    0.025285  (    0,    5)  1AA 6AB 
    *  16    0.025285  (    5,    0)  1AB 6AA 
    *  17    0.016371  (    1,    7)  2AA 8AB 
    *  18    0.016371  (    7,    1)  2AB 8AA 
    *  19   -0.008991  (    1,    8)  2AA 9AB 
    *  20   -0.008991  (    8,    1)  2AB 9AA 


   ==> DETCI root 59 information <==

    DETCI Root 59 energy =     3.254618865922572

   The 20 most important determinants:

    *   1   -0.568145  (    3,    8)  4AA 9AB 
    *   2   -0.568145  (    8,    3)  4AB 9AA 
    *   3   -0.312023  (    7,    3)  4AB 8AA 
    *   4   -0.312023  (    3,    7)  4AA 8AB 
    *   5    0.241607  (    6,    5)  6AB 7AA 
    *   6    0.241607  (    5,    6)  6AA 7AB 
    *   7    0.119876  (    4,    6)  5AA 7AB 
    *   8    0.119876  (    6,    4)  5AB 7AA 
    *   9   -0.053171  (    2,    5)  3AA 6AB 
    *  10   -0.053171  (    5,    2)  3AB 6AA 
    *  11   -0.050961  (    0,    5)  1AA 6AB 
    *  12   -0.050961  (    5,    0)  1AB 6AA 
    *  13   -0.026382  (    4,    2)  3AB 5AA 
    *  14   -0.026382  (    2,    4)  3AA 5AB 
    *  15   -0.025285  (    0,    4)  1AA 5AB 
    *  16   -0.025285  (    4,    0)  1AB 5AA 
    *  17    0.016371  (    1,    8)  2AA 9AB 
    *  18    0.016371  (    8,    1)  2AB 9AA 
    *  19    0.008991  (    7,    1)  2AB 8AA 
    *  20    0.008991  (    1,    7)  2AA 8AB 


   ==> DETCI root 60 information <==

    DETCI Root 60 energy =     3.302148397168704

   The 20 most important determinants:

    *   1   -0.700950  (    9,    0)  1AB 10AA 
    *   2    0.700950  (    0,    9)  1AA 10AB 
    *   3    0.064426  (    6,    3)  4AB 7AA 
    *   4   -0.064426  (    3,    6)  4AA 7AB 
    *   5    0.039544  (    8,    5)  6AB 9AA 
    *   6    0.039544  (    7,    4)  5AB 8AA 
    *   7   -0.039544  (    4,    7)  5AA 8AB 
    *   8   -0.039544  (    5,    8)  6AA 9AB 
    *   9    0.023375  (    6,    1)  2AB 7AA 
    *  10   -0.023375  (    1,    6)  2AA 7AB 
    *  11    0.023361  (    3,    0)  1AB 4AA 
    *  12   -0.023361  (    0,    3)  1AA 4AB 
    *  13    0.011606  (    9,    6)  7AB 10AA 
    *  14   -0.011606  (    6,    9)  7AA 10AB 
    *  15    0.010939  (    2,    9)  3AA 10AB 
    *  16   -0.010939  (    9,    2)  3AB 10AA 
    *  17   -0.004804  (    3,    2)  3AB 4AA 
    *  18    0.004804  (    2,    3)  3AA 4AB 
    *  19    0.003075  (    1,    2)  2AA 3AB 
    *  20   -0.003075  (    2,    1)  2AB 3AA 


   ==> DETCI root 61 information <==

    DETCI Root 61 energy =     3.485757307125324

   The 20 most important determinants:

    *   1    0.636848  (    0,    9)  1AA 10AB 
    *   2    0.636848  (    9,    0)  1AB 10AA 
    *   3   -0.273371  (    3,    6)  4AA 7AB 
    *   4   -0.273371  (    6,    3)  4AB 7AA 
    *   5   -0.093019  (    2,    9)  3AA 10AB 
    *   6   -0.093019  (    9,    2)  3AB 10AA 
    *   7   -0.069613  (    1,    6)  2AA 7AB 
    *   8   -0.069613  (    6,    1)  2AB 7AA 
    *   9   -0.042841  (    5,    8)  6AA 9AB 
    *  10   -0.042841  (    4,    7)  5AA 8AB 
    *  11   -0.042841  (    7,    4)  5AB 8AA 
    *  12   -0.042841  (    8,    5)  6AB 9AA 
    *  13   -0.037595  (    6,    9)  7AA 10AB 
    *  14   -0.037595  (    9,    6)  7AB 10AA 
    *  15   -0.026829  (    0,    3)  1AA 4AB 
    *  16   -0.026829  (    3,    0)  1AB 4AA 
    *  17    0.018084  (    2,    3)  3AA 4AB 
    *  18    0.018084  (    3,    2)  3AB 4AA 
    *  19   -0.007480  (    0,    1)  1AA 2AB 
    *  20   -0.007480  (    1,    0)  1AB 2AA 


   ==> DETCI root 62 information <==

    DETCI Root 62 energy =     3.505511273251389

   The 20 most important determinants:

    *   1   -0.685875  (    4,    6)  5AA 7AB 
    *   2    0.685875  (    6,    4)  5AB 7AA 
    *   3   -0.157498  (    7,    3)  4AB 8AA 
    *   4    0.157498  (    3,    7)  4AA 8AB 
    *   5    0.051688  (    6,    5)  6AB 7AA 
    *   6   -0.051688  (    5,    6)  6AA 7AB 
    *   7   -0.034756  (    7,    9)  8AA 10AB 
    *   8    0.034756  (    9,    7)  8AB 10AA 
    *   9   -0.022992  (    4,    2)  3AB 5AA 
    *  10    0.022992  (    2,    4)  3AA 5AB 
    *  11   -0.016072  (    7,    1)  2AB 8AA 
    *  12    0.016072  (    1,    7)  2AA 8AB 
    *  13   -0.008422  (    4,    0)  1AB 5AA 
    *  14    0.008422  (    0,    4)  1AA 5AB 
    *  15    0.005288  (    3,    8)  4AA 9AB 
    *  16   -0.005288  (    8,    3)  4AB 9AA 
    *  17    0.001733  (    2,    5)  3AA 6AB 
    *  18   -0.001733  (    5,    2)  3AB 6AA 
    *  19    0.001167  (    9,    8)  9AB 10AA 
    *  20   -0.001167  (    8,    9)  9AA 10AB 


   ==> DETCI root 63 information <==

    DETCI Root 63 energy =     3.505511273251393

   The 20 most important determinants:

    *   1   -0.685875  (    5,    6)  6AA 7AB 
    *   2    0.685875  (    6,    5)  6AB 7AA 
    *   3   -0.157498  (    8,    3)  4AB 9AA 
    *   4    0.157498  (    3,    8)  4AA 9AB 
    *   5    0.051688  (    4,    6)  5AA 7AB 
    *   6   -0.051688  (    6,    4)  5AB 7AA 
    *   7   -0.034756  (    8,    9)  9AA 10AB 
    *   8    0.034756  (    9,    8)  9AB 10AA 
    *   9   -0.022992  (    5,    2)  3AB 6AA 
    *  10    0.022992  (    2,    5)  3AA 6AB 
    *  11   -0.016072  (    8,    1)  2AB 9AA 
    *  12    0.016072  (    1,    8)  2AA 9AB 
    *  13   -0.008422  (    5,    0)  1AB 6AA 
    *  14    0.008422  (    0,    5)  1AA 6AB 
    *  15    0.005288  (    7,    3)  4AB 8AA 
    *  16   -0.005288  (    3,    7)  4AA 8AB 
    *  17    0.001733  (    4,    2)  3AB 5AA 
    *  18   -0.001733  (    2,    4)  3AA 5AB 
    *  19    0.001167  (    7,    9)  8AA 10AB 
    *  20   -0.001167  (    9,    7)  8AB 10AA 


   ==> DETCI root 64 information <==

    DETCI Root 64 energy =     3.585027576248762

   The 20 most important determinants:

    *   1   -0.499566  (    5,    7)  6AA 8AB 
    *   2    0.499566  (    8,    4)  5AB 9AA 
    *   3   -0.499566  (    7,    5)  6AB 8AA 
    *   4    0.499566  (    4,    8)  5AA 9AB 
    *   5    0.020821  (    5,    8)  6AA 9AB 
    *   6    0.020821  (    7,    4)  5AB 8AA 
    *   7    0.020821  (    4,    7)  5AA 8AB 
    *   8    0.020821  (    8,    5)  6AB 9AA 


   ==> DETCI root 65 information <==

    DETCI Root 65 energy =     3.601792009815841

   The 20 most important determinants:

    *   1    0.499207  (    4,    7)  5AA 8AB 
    *   2   -0.499207  (    7,    4)  5AB 8AA 
    *   3    0.499207  (    8,    5)  6AB 9AA 
    *   4   -0.499207  (    5,    8)  6AA 9AB 
    *   5    0.028142  (    8,    4)  5AB 9AA 
    *   6   -0.028142  (    4,    8)  5AA 9AB 
    *   7   -0.028142  (    5,    7)  6AA 8AB 
    *   8    0.028142  (    7,    5)  6AB 8AA 


   ==> DETCI root 66 information <==

    DETCI Root 66 energy =     3.601792009815845

   The 20 most important determinants:

    *   1    0.499207  (    7,    5)  6AB 8AA 
    *   2   -0.499207  (    4,    8)  5AA 9AB 
    *   3   -0.499207  (    5,    7)  6AA 8AB 
    *   4    0.499207  (    8,    4)  5AB 9AA 
    *   5    0.028142  (    5,    8)  6AA 9AB 
    *   6   -0.028142  (    8,    5)  6AB 9AA 
    *   7   -0.028142  (    4,    7)  5AA 8AB 
    *   8    0.028142  (    7,    4)  5AB 8AA 


   ==> DETCI root 67 information <==

    DETCI Root 67 energy =     3.622682155913630

   The 20 most important determinants:

    *   1    0.497349  (    8,    5)  6AB 9AA 
    *   2   -0.497349  (    5,    8)  6AA 9AB 
    *   3   -0.497349  (    4,    7)  5AA 8AB 
    *   4    0.497349  (    7,    4)  5AB 8AA 
    *   5   -0.059165  (    0,    9)  1AA 10AB 
    *   6    0.059165  (    9,    0)  1AB 10AA 
    *   7    0.024565  (    6,    3)  4AB 7AA 
    *   8   -0.024565  (    3,    6)  4AA 7AB 
    *   9   -0.020729  (    5,    7)  6AA 8AB 
    *  10    0.020729  (    7,    5)  6AB 8AA 
    *  11    0.020729  (    4,    8)  5AA 9AB 
    *  12   -0.020729  (    8,    4)  5AB 9AA 
    *  13    0.010697  (    2,    9)  3AA 10AB 
    *  14   -0.010697  (    9,    2)  3AB 10AA 
    *  15    0.007977  (    9,    6)  7AB 10AA 
    *  16   -0.007977  (    6,    9)  7AA 10AB 
    *  17    0.007338  (    3,    0)  1AB 4AA 
    *  18   -0.007338  (    0,    3)  1AA 4AB 
    *  19   -0.005919  (    0,    1)  1AA 2AB 
    *  20    0.005919  (    1,    0)  1AB 2AA 


   ==> DETCI root 68 information <==

    DETCI Root 68 energy =     3.634339474726769

   The 20 most important determinants:

    *   1   -0.576521  (    6,    4)  5AB 7AA 
    *   2   -0.576521  (    4,    6)  5AA 7AB 
    *   3    0.301467  (    6,    5)  6AB 7AA 
    *   4    0.301467  (    5,    6)  6AA 7AB 
    *   5   -0.232915  (    3,    7)  4AA 8AB 
    *   6   -0.232915  (    7,    3)  4AB 8AA 
    *   7    0.134431  (    3,    8)  4AA 9AB 
    *   8    0.134431  (    8,    3)  4AB 9AA 
    *   9   -0.041287  (    1,    7)  2AA 8AB 
    *  10   -0.041287  (    7,    1)  2AB 8AA 
    *  11   -0.033289  (    9,    7)  8AB 10AA 
    *  12   -0.033289  (    7,    9)  8AA 10AB 
    *  13    0.023829  (    1,    8)  2AA 9AB 
    *  14    0.023829  (    8,    1)  2AB 9AA 
    *  15   -0.019873  (    2,    4)  3AA 5AB 
    *  16   -0.019873  (    4,    2)  3AB 5AA 
    *  17    0.019213  (    9,    8)  9AB 10AA 
    *  18    0.019213  (    8,    9)  9AA 10AB 
    *  19   -0.011448  (    0,    4)  1AA 5AB 
    *  20   -0.011448  (    4,    0)  1AB 5AA 


   ==> DETCI root 69 information <==

    DETCI Root 69 energy =     3.634339474726772

   The 20 most important determinants:

    *   1    0.576521  (    6,    5)  6AB 7AA 
    *   2    0.576521  (    5,    6)  6AA 7AB 
    *   3    0.301467  (    4,    6)  5AA 7AB 
    *   4    0.301467  (    6,    4)  5AB 7AA 
    *   5    0.232915  (    3,    8)  4AA 9AB 
    *   6    0.232915  (    8,    3)  4AB 9AA 
    *   7    0.134431  (    7,    3)  4AB 8AA 
    *   8    0.134431  (    3,    7)  4AA 8AB 
    *   9    0.041287  (    1,    8)  2AA 9AB 
    *  10    0.041287  (    8,    1)  2AB 9AA 
    *  11    0.033289  (    9,    8)  9AB 10AA 
    *  12    0.033289  (    8,    9)  9AA 10AB 
    *  13    0.023829  (    1,    7)  2AA 8AB 
    *  14    0.023829  (    7,    1)  2AB 8AA 
    *  15    0.019873  (    2,    5)  3AA 6AB 
    *  16    0.019873  (    5,    2)  3AB 6AA 
    *  17    0.019213  (    9,    7)  8AB 10AA 
    *  18    0.019213  (    7,    9)  8AA 10AB 
    *  19    0.011448  (    0,    5)  1AA 6AB 
    *  20    0.011448  (    5,    0)  1AB 6AA 


   ==> DETCI root 70 information <==

    DETCI Root 70 energy =     3.803399514259629

   The 20 most important determinants:

    *   1   -0.703303  (    9,    1)  2AB 10AA 
    *   2    0.703303  (    1,    9)  2AA 10AB 
    *   3   -0.059690  (    9,    3)  4AB 10AA 
    *   4    0.059690  (    3,    9)  4AA 10AB 
    *   5    0.033108  (    3,    1)  2AB 4AA 
    *   6   -0.033108  (    1,    3)  2AA 4AB 
    *   7    0.026440  (    6,    0)  1AB 7AA 
    *   8   -0.026440  (    0,    6)  1AA 7AB 
    *   9   -0.002266  (    2,    6)  3AA 7AB 
    *  10    0.002266  (    6,    2)  3AB 7AA 
    *  11   -0.001480  (    2,    0)  1AB 3AA 
    *  12    0.001480  (    0,    2)  1AA 3AB 


   ==> DETCI root 71 information <==

    DETCI Root 71 energy =     3.844148932671554

   The 20 most important determinants:

    *   1    0.499566  (    8,    4)  5AB 9AA 
    *   2   -0.499566  (    4,    8)  5AA 9AB 
    *   3    0.499566  (    5,    7)  6AA 8AB 
    *   4   -0.499566  (    7,    5)  6AB 8AA 
    *   5    0.020821  (    8,    5)  6AB 9AA 
    *   6   -0.020821  (    4,    7)  5AA 8AB 
    *   7   -0.020821  (    5,    8)  6AA 9AB 
    *   8    0.020821  (    7,    4)  5AB 8AA 


   ==> DETCI root 72 information <==

    DETCI Root 72 energy =     3.847161002725535

   The 20 most important determinants:

    *   1    0.681994  (    1,    9)  2AA 10AB 
    *   2    0.681994  (    9,    1)  2AB 10AA 
    *   3    0.246719  (    6,    6)  7AX 
    *   4   -0.031632  (    1,    3)  2AA 4AB 
    *   5   -0.031632  (    3,    1)  2AB 4AA 
    *   6   -0.031101  (    0,    6)  1AA 7AB 
    *   7   -0.031101  (    6,    0)  1AB 7AA 
    *   8    0.030709  (    3,    3)  4AX 
    *   9   -0.027729  (    8,    8)  9AX 
    *  10   -0.027729  (    7,    7)  8AX 
    *  11    0.021299  (    5,    5)  6AX 
    *  12    0.021299  (    4,    4)  5AX 
    *  13    0.016988  (    6,    2)  3AB 7AA 
    *  14    0.016988  (    2,    6)  3AA 7AB 
    *  15    0.014958  (    3,    9)  4AA 10AB 
    *  16    0.014958  (    9,    3)  4AB 10AA 
    *  17    0.013813  (    2,    2)  3AX 
    *  18    0.011080  (    2,    0)  1AB 3AA 
    *  19    0.011080  (    0,    2)  1AA 3AB 
    *  20    0.007766  (    0,    0)  1AX 


   ==> DETCI root 73 information <==

    DETCI Root 73 energy =     3.962494338125613

   The 20 most important determinants:

    *   1    0.483764  (    7,    4)  5AB 8AA 
    *   2    0.483764  (    4,    7)  5AA 8AB 
    *   3   -0.483764  (    5,    8)  6AA 9AB 
    *   4   -0.483764  (    8,    5)  6AB 9AA 
    *   5   -0.126382  (    4,    8)  5AA 9AB 
    *   6   -0.126382  (    8,    4)  5AB 9AA 
    *   7   -0.126382  (    7,    5)  6AB 8AA 
    *   8   -0.126382  (    5,    7)  6AA 8AB 


   ==> DETCI root 74 information <==

    DETCI Root 74 energy =     3.962494338125616

   The 20 most important determinants:

    *   1    0.483764  (    4,    8)  5AA 9AB 
    *   2    0.483764  (    8,    4)  5AB 9AA 
    *   3    0.483764  (    7,    5)  6AB 8AA 
    *   4    0.483764  (    5,    7)  6AA 8AB 
    *   5   -0.126382  (    8,    5)  6AB 9AA 
    *   6   -0.126382  (    5,    8)  6AA 9AB 
    *   7    0.126382  (    7,    4)  5AB 8AA 
    *   8    0.126382  (    4,    7)  5AA 8AB 


   ==> DETCI root 75 information <==

    DETCI Root 75 energy =     4.097163488653522

   The 20 most important determinants:

    *   1    0.482582  (    8,    5)  6AB 9AA 
    *   2    0.482582  (    5,    8)  6AA 9AB 
    *   3    0.482582  (    7,    4)  5AB 8AA 
    *   4    0.482582  (    4,    7)  5AA 8AB 
    *   5   -0.154384  (    9,    2)  3AB 10AA 
    *   6   -0.154384  (    2,    9)  3AA 10AB 
    *   7    0.066179  (    0,    9)  1AA 10AB 
    *   8    0.066179  (    9,    0)  1AB 10AA 
    *   9    0.047375  (    3,    6)  4AA 7AB 
    *  10    0.047375  (    6,    3)  4AB 7AA 
    *  11    0.033066  (    3,    0)  1AB 4AA 
    *  12    0.033066  (    0,    3)  1AA 4AB 
    *  13    0.027401  (    3,    2)  3AB 4AA 
    *  14    0.027401  (    2,    3)  3AA 4AB 
    *  15    0.023014  (    6,    9)  7AA 10AB 
    *  16    0.023014  (    9,    6)  7AB 10AA 
    *  17    0.020410  (    0,    1)  1AA 2AB 
    *  18    0.020410  (    1,    0)  1AB 2AA 
    *  19    0.020114  (    5,    7)  6AA 8AB 
    *  20    0.020114  (    7,    5)  6AB 8AA 


   ==> DETCI root 76 information <==

    DETCI Root 76 energy =     4.239820707381098

   The 20 most important determinants:

    *   1    0.705169  (    2,    9)  3AA 10AB 
    *   2   -0.705169  (    9,    2)  3AB 10AA 
    *   3   -0.028990  (    6,    9)  7AA 10AB 
    *   4    0.028990  (    9,    6)  7AB 10AA 
    *   5    0.028727  (    3,    2)  3AB 4AA 
    *   6   -0.028727  (    2,    3)  3AA 4AB 
    *   7   -0.023815  (    3,    6)  4AA 7AB 
    *   8    0.023815  (    6,    3)  4AB 7AA 
    *   9    0.011814  (    9,    0)  1AB 10AA 
    *  10   -0.011814  (    0,    9)  1AA 10AB 
    *  11   -0.011642  (    6,    1)  2AB 7AA 
    *  12    0.011642  (    1,    6)  2AA 7AB 
    *  13    0.009143  (    4,    7)  5AA 8AB 
    *  14    0.009143  (    5,    8)  6AA 9AB 
    *  15   -0.009143  (    7,    4)  5AB 8AA 
    *  16   -0.009143  (    8,    5)  6AB 9AA 
    *  17    0.007561  (    0,    3)  1AA 4AB 
    *  18   -0.007561  (    3,    0)  1AB 4AA 
    *  19   -0.002180  (    2,    1)  2AB 3AA 
    *  20    0.002180  (    1,    2)  2AA 3AB 


   ==> DETCI root 77 information <==

    DETCI Root 77 energy =     4.313833643035764

   The 20 most important determinants:

    *   1   -0.915653  (    6,    6)  7AX 
    *   2   -0.198720  (    9,    3)  4AB 10AA 
    *   3   -0.198720  (    3,    9)  4AA 10AB 
    *   4    0.173830  (    1,    9)  2AA 10AB 
    *   5    0.173830  (    9,    1)  2AB 10AA 
    *   6    0.090365  (    8,    8)  9AX 
    *   7    0.090365  (    7,    7)  8AX 
    *   8    0.035375  (    9,    9)  10AX 
    *   9   -0.028665  (    3,    3)  4AX 
    *  10   -0.027399  (    3,    1)  2AB 4AA 
    *  11   -0.027399  (    1,    3)  2AA 4AB 
    *  12   -0.021059  (    5,    5)  6AX 
    *  13   -0.021059  (    4,    4)  5AX 
    *  14   -0.016938  (    0,    0)  1AX 
    *  15   -0.016742  (    2,    2)  3AX 
    *  16   -0.013976  (    0,    2)  1AA 3AB 
    *  17   -0.013976  (    2,    0)  1AB 3AA 
    *  18   -0.011265  (    1,    1)  2AX 
    *  19   -0.009352  (    0,    6)  1AA 7AB 
    *  20   -0.009352  (    6,    0)  1AB 7AA 


   ==> DETCI root 78 information <==

    DETCI Root 78 energy =     4.379264306068844

   The 20 most important determinants:

    *   1    0.681759  (    9,    2)  3AB 10AA 
    *   2    0.681759  (    2,    9)  3AA 10AB 
    *   3    0.105783  (    8,    5)  6AB 9AA 
    *   4    0.105783  (    5,    8)  6AA 9AB 
    *   5    0.105783  (    4,    7)  5AA 8AB 
    *   6    0.105783  (    7,    4)  5AB 8AA 
    *   7    0.083561  (    0,    9)  1AA 10AB 
    *   8    0.083561  (    9,    0)  1AB 10AA 
    *   9   -0.071528  (    6,    3)  4AB 7AA 
    *  10   -0.071528  (    3,    6)  4AA 7AB 
    *  11    0.023683  (    0,    3)  1AA 4AB 
    *  12    0.023683  (    3,    0)  1AB 4AA 
    *  13    0.007636  (    0,    1)  1AA 2AB 
    *  14    0.007636  (    1,    0)  1AB 2AA 
    *  15   -0.005830  (    6,    9)  7AA 10AB 
    *  16   -0.005830  (    9,    6)  7AB 10AA 
    *  17    0.005113  (    1,    2)  2AA 3AB 
    *  18    0.005113  (    2,    1)  2AB 3AA 
    *  19    0.004409  (    7,    5)  6AB 8AA 
    *  20   -0.004409  (    8,    4)  5AB 9AA 


   ==> DETCI root 79 information <==

    DETCI Root 79 energy =     4.455931257311808

   The 20 most important determinants:

    *   1    0.605706  (    6,    7)  7AA 8AB 
    *   2   -0.605706  (    7,    6)  7AB 8AA 
    *   3   -0.352865  (    6,    8)  7AA 9AB 
    *   4    0.352865  (    8,    6)  7AB 9AA 
    *   5    0.073879  (    9,    4)  5AB 10AA 
    *   6   -0.073879  (    4,    9)  5AA 10AB 
    *   7   -0.039013  (    9,    5)  6AB 10AA 
    *   8    0.039013  (    5,    9)  6AA 10AB 
    *   9    0.027702  (    3,    4)  4AA 5AB 
    *  10   -0.027702  (    4,    3)  4AB 5AA 
    *  11    0.018139  (    2,    7)  3AA 8AB 
    *  12   -0.018139  (    7,    2)  3AB 8AA 
    *  13   -0.014629  (    3,    5)  4AA 6AB 
    *  14    0.014629  (    5,    3)  4AB 6AA 
    *  15    0.012340  (    1,    4)  2AA 5AB 
    *  16   -0.012340  (    4,    1)  2AB 5AA 
    *  17   -0.010567  (    2,    8)  3AA 9AB 
    *  18    0.010567  (    8,    2)  3AB 9AA 
    *  19   -0.006516  (    1,    5)  2AA 6AB 
    *  20    0.006516  (    5,    1)  2AB 6AA 


   ==> DETCI root 80 information <==

    DETCI Root 80 energy =     4.455931257311811

   The 20 most important determinants:

    *   1    0.605706  (    6,    8)  7AA 9AB 
    *   2   -0.605706  (    8,    6)  7AB 9AA 
    *   3    0.352865  (    6,    7)  7AA 8AB 
    *   4   -0.352865  (    7,    6)  7AB 8AA 
    *   5    0.073879  (    9,    5)  6AB 10AA 
    *   6   -0.073879  (    5,    9)  6AA 10AB 
    *   7    0.039013  (    9,    4)  5AB 10AA 
    *   8   -0.039013  (    4,    9)  5AA 10AB 
    *   9    0.027702  (    3,    5)  4AA 6AB 
    *  10   -0.027702  (    5,    3)  4AB 6AA 
    *  11    0.018139  (    2,    8)  3AA 9AB 
    *  12   -0.018139  (    8,    2)  3AB 9AA 
    *  13    0.014629  (    3,    4)  4AA 5AB 
    *  14   -0.014629  (    4,    3)  4AB 5AA 
    *  15    0.012340  (    1,    5)  2AA 6AB 
    *  16   -0.012340  (    5,    1)  2AB 6AA 
    *  17    0.010567  (    2,    7)  3AA 8AB 
    *  18   -0.010567  (    7,    2)  3AB 8AA 
    *  19    0.006516  (    1,    4)  2AA 5AB 
    *  20   -0.006516  (    4,    1)  2AB 5AA 


   ==> DETCI root 81 information <==

    DETCI Root 81 energy =     4.515432126382217

   The 20 most important determinants:

    *   1    0.678137  (    7,    6)  7AB 8AA 
    *   2    0.678137  (    6,    7)  7AA 8AB 
    *   3   -0.145664  (    8,    6)  7AB 9AA 
    *   4   -0.145664  (    6,    8)  7AA 9AB 
    *   5    0.121782  (    4,    9)  5AA 10AB 
    *   6    0.121782  (    9,    4)  5AB 10AA 
    *   7    0.038957  (    4,    3)  4AB 5AA 
    *   8    0.038957  (    3,    4)  4AA 5AB 
    *   9    0.031102  (    7,    2)  3AB 8AA 
    *  10    0.031102  (    2,    7)  3AA 8AB 
    *  11    0.026162  (    7,    0)  1AB 8AA 
    *  12    0.026162  (    0,    7)  1AA 8AB 
    *  13   -0.020896  (    5,    9)  6AA 10AB 
    *  14   -0.020896  (    9,    5)  6AB 10AA 
    *  15    0.018541  (    4,    1)  2AB 5AA 
    *  16    0.018541  (    1,    4)  2AA 5AB 
    *  17   -0.006685  (    5,    3)  4AB 6AA 
    *  18   -0.006685  (    3,    5)  4AA 6AB 
    *  19   -0.006681  (    8,    2)  3AB 9AA 
    *  20   -0.006681  (    2,    8)  3AA 9AB 


   ==> DETCI root 82 information <==

    DETCI Root 82 energy =     4.515432126382221

   The 20 most important determinants:

    *   1    0.678137  (    8,    6)  7AB 9AA 
    *   2    0.678137  (    6,    8)  7AA 9AB 
    *   3    0.145664  (    7,    6)  7AB 8AA 
    *   4    0.145664  (    6,    7)  7AA 8AB 
    *   5    0.121782  (    5,    9)  6AA 10AB 
    *   6    0.121782  (    9,    5)  6AB 10AA 
    *   7    0.038957  (    5,    3)  4AB 6AA 
    *   8    0.038957  (    3,    5)  4AA 6AB 
    *   9    0.031102  (    8,    2)  3AB 9AA 
    *  10    0.031102  (    2,    8)  3AA 9AB 
    *  11    0.026162  (    8,    0)  1AB 9AA 
    *  12    0.026162  (    0,    8)  1AA 9AB 
    *  13    0.020896  (    4,    9)  5AA 10AB 
    *  14    0.020896  (    9,    4)  5AB 10AA 
    *  15    0.018541  (    5,    1)  2AB 6AA 
    *  16    0.018541  (    1,    5)  2AA 6AB 
    *  17    0.006685  (    3,    4)  4AA 5AB 
    *  18    0.006685  (    4,    3)  4AB 5AA 
    *  19    0.006681  (    7,    2)  3AB 8AA 
    *  20    0.006681  (    2,    7)  3AA 8AB 


   ==> DETCI root 83 information <==

    DETCI Root 83 energy =     4.695384800830769

   The 20 most important determinants:

    *   1   -0.705520  (    7,    8)  8AA 9AB 
    *   2    0.705520  (    8,    7)  8AB 9AA 
    *   3   -0.047348  (    4,    5)  5AA 6AB 
    *   4    0.047348  (    5,    4)  5AB 6AA 


   ==> DETCI root 84 information <==

    DETCI Root 84 energy =     4.713739165476296

   The 20 most important determinants:

    *   1   -0.703446  (    9,    3)  4AB 10AA 
    *   2    0.703446  (    3,    9)  4AA 10AB 
    *   3   -0.059971  (    1,    9)  2AA 10AB 
    *   4    0.059971  (    9,    1)  2AB 10AA 
    *   5    0.033332  (    6,    2)  3AB 7AA 
    *   6   -0.033332  (    2,    6)  3AA 7AB 
    *   7   -0.018019  (    0,    6)  1AA 7AB 
    *   8    0.018019  (    6,    0)  1AB 7AA 
    *   9    0.011095  (    1,    3)  2AA 4AB 
    *  10   -0.011095  (    3,    1)  2AB 4AA 
    *  11   -0.002881  (    2,    0)  1AB 3AA 
    *  12    0.002881  (    0,    2)  1AA 3AB 


   ==> DETCI root 85 information <==

    DETCI Root 85 energy =     4.776944645909868

   The 20 most important determinants:

    *   1   -0.687119  (    8,    7)  8AB 9AA 
    *   2   -0.687119  (    7,    8)  8AA 9AB 
    *   3   -0.153467  (    7,    7)  8AX 
    *   4    0.153467  (    8,    8)  9AX 
    *   5   -0.065083  (    5,    4)  5AB 6AA 
    *   6   -0.065083  (    4,    5)  5AA 6AB 
    *   7   -0.008935  (    4,    4)  5AX 
    *   8    0.008935  (    5,    5)  6AX 


   ==> DETCI root 86 information <==

    DETCI Root 86 energy =     4.776944645909871

   The 20 most important determinants:

    *   1    0.687119  (    7,    7)  8AX 
    *   2   -0.687119  (    8,    8)  9AX 
    *   3   -0.153467  (    7,    8)  8AA 9AB 
    *   4   -0.153467  (    8,    7)  8AB 9AA 
    *   5    0.065083  (    4,    4)  5AX 
    *   6   -0.065083  (    5,    5)  6AX 
    *   7   -0.008935  (    4,    5)  5AA 6AB 
    *   8   -0.008935  (    5,    4)  5AB 6AA 


   ==> DETCI root 87 information <==

    DETCI Root 87 energy =     4.876121968597668

   The 20 most important determinants:

    *   1   -0.676134  (    8,    8)  9AX 
    *   2   -0.676134  (    7,    7)  8AX 
    *   3   -0.177934  (    6,    6)  7AX 
    *   4    0.128457  (    9,    3)  4AB 10AA 
    *   5    0.128457  (    3,    9)  4AA 10AB 
    *   6   -0.084207  (    5,    5)  6AX 
    *   7   -0.084207  (    4,    4)  5AX 
    *   8   -0.050920  (    3,    3)  4AX 
    *   9    0.036496  (    9,    9)  10AX 
    *  10   -0.021929  (    1,    3)  2AA 4AB 
    *  11   -0.021929  (    3,    1)  2AB 4AA 
    *  12   -0.020871  (    6,    0)  1AB 7AA 
    *  13   -0.020871  (    0,    6)  1AA 7AB 
    *  14   -0.020343  (    0,    0)  1AX 
    *  15   -0.014453  (    1,    1)  2AX 
    *  16   -0.011734  (    6,    2)  3AB 7AA 
    *  17   -0.011734  (    2,    6)  3AA 7AB 
    *  18   -0.007715  (    0,    2)  1AA 3AB 
    *  19   -0.007715  (    2,    0)  1AB 3AA 
    *  20   -0.005663  (    2,    2)  3AX 


   ==> DETCI root 88 information <==

    DETCI Root 88 energy =     4.977990294030477

   The 20 most important determinants:

    *   1   -0.663717  (    3,    9)  4AA 10AB 
    *   2   -0.663717  (    9,    3)  4AB 10AA 
    *   3    0.241861  (    6,    6)  7AX 
    *   4   -0.158429  (    8,    8)  9AX 
    *   5   -0.158429  (    7,    7)  8AX 
    *   6   -0.044282  (    9,    9)  10AX 
    *   7    0.037022  (    3,    3)  4AX 
    *   8   -0.034423  (    1,    9)  2AA 10AB 
    *   9   -0.034423  (    9,    1)  2AB 10AA 
    *  10    0.026776  (    0,    6)  1AA 7AB 
    *  11    0.026776  (    6,    0)  1AB 7AA 
    *  12   -0.026150  (    5,    5)  6AX 
    *  13   -0.026150  (    4,    4)  5AX 
    *  14    0.023304  (    2,    6)  3AA 7AB 
    *  15    0.023304  (    6,    2)  3AB 7AA 
    *  16   -0.016212  (    2,    2)  3AX 
    *  17   -0.012418  (    2,    0)  1AB 3AA 
    *  18   -0.012418  (    0,    2)  1AA 3AB 
    *  19   -0.009509  (    0,    0)  1AX 
    *  20    0.002609  (    1,    1)  2AX 


   ==> DETCI root 89 information <==

    DETCI Root 89 energy =     5.303998340509692

   The 20 most important determinants:

    *   1   -0.623923  (    4,    9)  5AA 10AB 
    *   2    0.623923  (    9,    4)  5AB 10AA 
    *   3    0.321653  (    5,    9)  6AA 10AB 
    *   4   -0.321653  (    9,    5)  6AB 10AA 
    *   5    0.072150  (    7,    6)  7AB 8AA 
    *   6   -0.072150  (    6,    7)  7AA 8AB 
    *   7   -0.041086  (    8,    6)  7AB 9AA 
    *   8    0.041086  (    6,    8)  7AA 9AB 
    *   9    0.015740  (    4,    3)  4AB 5AA 
    *  10   -0.015740  (    3,    4)  4AA 5AB 
    *  11   -0.008114  (    5,    3)  4AB 6AA 
    *  12    0.008114  (    3,    5)  4AA 6AB 
    *  13    0.005912  (    2,    7)  3AA 8AB 
    *  14   -0.005912  (    7,    2)  3AB 8AA 
    *  15    0.003367  (    8,    2)  3AB 9AA 
    *  16   -0.003367  (    2,    8)  3AA 9AB 
    *  17   -0.001804  (    1,    4)  2AA 5AB 
    *  18    0.001804  (    4,    1)  2AB 5AA 
    *  19    0.001067  (    7,    0)  1AB 8AA 
    *  20   -0.001067  (    0,    7)  1AA 8AB 


   ==> DETCI root 90 information <==

    DETCI Root 90 energy =     5.303998340509698

   The 20 most important determinants:

    *   1   -0.623923  (    5,    9)  6AA 10AB 
    *   2    0.623923  (    9,    5)  6AB 10AA 
    *   3    0.321653  (    9,    4)  5AB 10AA 
    *   4   -0.321653  (    4,    9)  5AA 10AB 
    *   5    0.072150  (    8,    6)  7AB 9AA 
    *   6   -0.072150  (    6,    8)  7AA 9AB 
    *   7   -0.041086  (    6,    7)  7AA 8AB 
    *   8    0.041086  (    7,    6)  7AB 8AA 
    *   9    0.015740  (    5,    3)  4AB 6AA 
    *  10   -0.015740  (    3,    5)  4AA 6AB 
    *  11   -0.008114  (    3,    4)  4AA 5AB 
    *  12    0.008114  (    4,    3)  4AB 5AA 
    *  13   -0.005912  (    8,    2)  3AB 9AA 
    *  14    0.005912  (    2,    8)  3AA 9AB 
    *  15   -0.003367  (    7,    2)  3AB 8AA 
    *  16    0.003367  (    2,    7)  3AA 8AB 
    *  17   -0.001804  (    1,    5)  2AA 6AB 
    *  18    0.001804  (    5,    1)  2AB 6AA 
    *  19   -0.001067  (    0,    8)  1AA 9AB 
    *  20    0.001067  (    8,    0)  1AB 9AA 


   ==> DETCI root 91 information <==

    DETCI Root 91 energy =     5.378419147066147

   The 20 most important determinants:

    *   1    0.653926  (    9,    5)  6AB 10AA 
    *   2    0.653926  (    5,    9)  6AA 10AB 
    *   3    0.237259  (    4,    9)  5AA 10AB 
    *   4    0.237259  (    9,    4)  5AB 10AA 
    *   5   -0.115270  (    6,    8)  7AA 9AB 
    *   6   -0.115270  (    8,    6)  7AB 9AA 
    *   7   -0.047343  (    7,    6)  7AB 8AA 
    *   8   -0.047343  (    6,    7)  7AA 8AB 
    *   9    0.015477  (    2,    8)  3AA 9AB 
    *  10    0.015477  (    8,    2)  3AB 9AA 
    *  11    0.012156  (    8,    0)  1AB 9AA 
    *  12    0.012156  (    0,    8)  1AA 9AB 
    *  13   -0.009736  (    3,    5)  4AA 6AB 
    *  14   -0.009736  (    5,    3)  4AB 6AA 
    *  15    0.006356  (    2,    7)  3AA 8AB 
    *  16    0.006356  (    7,    2)  3AB 8AA 
    *  17    0.004993  (    7,    0)  1AB 8AA 
    *  18    0.004993  (    0,    7)  1AA 8AB 
    *  19   -0.003532  (    4,    3)  4AB 5AA 
    *  20   -0.003532  (    3,    4)  4AA 5AB 


   ==> DETCI root 92 information <==

    DETCI Root 92 energy =     5.378419147066149

   The 20 most important determinants:

    *   1    0.653926  (    9,    4)  5AB 10AA 
    *   2    0.653926  (    4,    9)  5AA 10AB 
    *   3   -0.237259  (    9,    5)  6AB 10AA 
    *   4   -0.237259  (    5,    9)  6AA 10AB 
    *   5   -0.115270  (    6,    7)  7AA 8AB 
    *   6   -0.115270  (    7,    6)  7AB 8AA 
    *   7    0.047343  (    6,    8)  7AA 9AB 
    *   8    0.047343  (    8,    6)  7AB 9AA 
    *   9    0.015477  (    2,    7)  3AA 8AB 
    *  10    0.015477  (    7,    2)  3AB 8AA 
    *  11    0.012156  (    7,    0)  1AB 8AA 
    *  12    0.012156  (    0,    7)  1AA 8AB 
    *  13   -0.009736  (    3,    4)  4AA 5AB 
    *  14   -0.009736  (    4,    3)  4AB 5AA 
    *  15   -0.006356  (    2,    8)  3AA 9AB 
    *  16   -0.006356  (    8,    2)  3AB 9AA 
    *  17   -0.004993  (    0,    8)  1AA 9AB 
    *  18   -0.004993  (    8,    0)  1AB 9AA 
    *  19    0.003532  (    3,    5)  4AA 6AB 
    *  20    0.003532  (    5,    3)  4AB 6AA 


   ==> DETCI root 93 information <==

    DETCI Root 93 energy =     5.957013570414716

   The 20 most important determinants:

    *   1   -0.706230  (    9,    6)  7AB 10AA 
    *   2    0.706230  (    6,    9)  7AA 10AB 
    *   3   -0.028955  (    9,    2)  3AB 10AA 
    *   4    0.028955  (    2,    9)  3AA 10AB 
    *   5   -0.009659  (    9,    0)  1AB 10AA 
    *   6    0.009659  (    0,    9)  1AA 10AB 
    *   7   -0.009514  (    2,    3)  3AA 4AB 
    *   8    0.009514  (    3,    2)  3AB 4AA 
    *   9   -0.008080  (    1,    6)  2AA 7AB 
    *  10    0.008080  (    6,    1)  2AB 7AA 
    *  11    0.006223  (    3,    0)  1AB 4AA 
    *  12   -0.006223  (    0,    3)  1AA 4AB 
    *  13    0.005619  (    8,    5)  6AB 9AA 
    *  14   -0.005619  (    4,    7)  5AA 8AB 
    *  15   -0.005619  (    5,    8)  6AA 9AB 
    *  16    0.005619  (    7,    4)  5AB 8AA 
    *  17   -0.005567  (    3,    6)  4AA 7AB 
    *  18    0.005567  (    6,    3)  4AB 7AA 
    *  19    0.003309  (    1,    2)  2AA 3AB 
    *  20   -0.003309  (    2,    1)  2AB 3AA 


   ==> DETCI root 94 information <==

    DETCI Root 94 energy =     6.259655605896485

   The 20 most important determinants:

    *   1    0.697444  (    7,    9)  8AA 10AB 
    *   2   -0.697444  (    9,    7)  8AB 10AA 
    *   3    0.109609  (    9,    8)  9AB 10AA 
    *   4   -0.109609  (    8,    9)  9AA 10AB 
    *   5   -0.030044  (    4,    6)  5AA 7AB 
    *   6    0.030044  (    6,    4)  5AB 7AA 
    *   7    0.023952  (    3,    7)  4AA 8AB 
    *   8   -0.023952  (    7,    3)  4AB 8AA 
    *   9   -0.005591  (    2,    4)  3AA 5AB 
    *  10    0.005591  (    4,    2)  3AB 5AA 
    *  11    0.004573  (    1,    7)  2AA 8AB 
    *  12   -0.004573  (    7,    1)  2AB 8AA 
    *  13   -0.003764  (    3,    8)  4AA 9AB 
    *  14    0.003764  (    8,    3)  4AB 9AA 
    *  15   -0.003447  (    6,    5)  6AB 7AA 
    *  16    0.003447  (    5,    6)  6AA 7AB 
    *  17   -0.001709  (    0,    4)  1AA 5AB 
    *  18    0.001709  (    4,    0)  1AB 5AA 
    *  19    0.000719  (    8,    1)  2AB 9AA 
    *  20   -0.000719  (    1,    8)  2AA 9AB 


   ==> DETCI root 95 information <==

    DETCI Root 95 energy =     6.259655605896494

   The 20 most important determinants:

    *   1   -0.697444  (    8,    9)  9AA 10AB 
    *   2    0.697444  (    9,    8)  9AB 10AA 
    *   3   -0.109609  (    7,    9)  8AA 10AB 
    *   4    0.109609  (    9,    7)  8AB 10AA 
    *   5    0.030044  (    5,    6)  6AA 7AB 
    *   6   -0.030044  (    6,    5)  6AB 7AA 
    *   7    0.023952  (    8,    3)  4AB 9AA 
    *   8   -0.023952  (    3,    8)  4AA 9AB 
    *   9   -0.005591  (    5,    2)  3AB 6AA 
    *  10    0.005591  (    2,    5)  3AA 6AB 
    *  11    0.004573  (    8,    1)  2AB 9AA 
    *  12   -0.004573  (    1,    8)  2AA 9AB 
    *  13    0.003764  (    7,    3)  4AB 8AA 
    *  14   -0.003764  (    3,    7)  4AA 8AB 
    *  15    0.003447  (    4,    6)  5AA 7AB 
    *  16   -0.003447  (    6,    4)  5AB 7AA 
    *  17   -0.001709  (    5,    0)  1AB 6AA 
    *  18    0.001709  (    0,    5)  1AA 6AB 
    *  19    0.000719  (    7,    1)  2AB 8AA 
    *  20   -0.000719  (    1,    7)  2AA 8AB 


   ==> DETCI root 96 information <==

    DETCI Root 96 energy =     6.290573884518215

   The 20 most important determinants:

    *   1   -0.704177  (    9,    6)  7AB 10AA 
    *   2   -0.704177  (    6,    9)  7AA 10AB 
    *   3    0.053107  (    6,    3)  4AB 7AA 
    *   4    0.053107  (    3,    6)  4AA 7AB 
    *   5    0.022451  (    1,    6)  2AA 7AB 
    *   6    0.022451  (    6,    1)  2AB 7AA 
    *   7   -0.014518  (    9,    0)  1AB 10AA 
    *   8   -0.014518  (    0,    9)  1AA 10AB 
    *   9    0.013677  (    8,    5)  6AB 9AA 
    *  10    0.013677  (    5,    8)  6AA 9AB 
    *  11    0.013677  (    4,    7)  5AA 8AB 
    *  12    0.013677  (    7,    4)  5AB 8AA 
    *  13    0.012052  (    3,    0)  1AB 4AA 
    *  14    0.012052  (    0,    3)  1AA 4AB 
    *  15    0.006607  (    1,    0)  1AB 2AA 
    *  16    0.006607  (    0,    1)  1AA 2AB 
    *  17    0.004857  (    3,    2)  3AB 4AA 
    *  18    0.004857  (    2,    3)  3AA 4AB 
    *  19   -0.003342  (    2,    9)  3AA 10AB 
    *  20   -0.003342  (    9,    2)  3AB 10AA 


   ==> DETCI root 97 information <==

    DETCI Root 97 energy =     6.332746310307800

   The 20 most important determinants:

    *   1    0.676610  (    9,    7)  8AB 10AA 
    *   2    0.676610  (    7,    9)  8AA 10AB 
    *   3    0.201289  (    9,    8)  9AB 10AA 
    *   4    0.201289  (    8,    9)  9AA 10AB 
    *   5   -0.033611  (    6,    4)  5AB 7AA 
    *   6   -0.033611  (    4,    6)  5AA 7AB 
    *   7   -0.015214  (    3,    7)  4AA 8AB 
    *   8   -0.015214  (    7,    3)  4AB 8AA 
    *   9   -0.011543  (    6,    5)  6AB 7AA 
    *  10   -0.011543  (    5,    6)  6AA 7AB 
    *  11    0.009607  (    2,    4)  3AA 5AB 
    *  12    0.009607  (    4,    2)  3AB 5AA 
    *  13    0.007418  (    4,    0)  1AB 5AA 
    *  14    0.007418  (    0,    4)  1AA 5AB 
    *  15   -0.004526  (    3,    8)  4AA 9AB 
    *  16   -0.004526  (    8,    3)  4AB 9AA 
    *  17    0.003299  (    2,    5)  3AA 6AB 
    *  18    0.003299  (    5,    2)  3AB 6AA 
    *  19    0.002547  (    5,    0)  1AB 6AA 
    *  20    0.002547  (    0,    5)  1AA 6AB 


   ==> DETCI root 98 information <==

    DETCI Root 98 energy =     6.332746310307813

   The 20 most important determinants:

    *   1   -0.676610  (    9,    8)  9AB 10AA 
    *   2   -0.676610  (    8,    9)  9AA 10AB 
    *   3    0.201289  (    7,    9)  8AA 10AB 
    *   4    0.201289  (    9,    7)  8AB 10AA 
    *   5    0.033611  (    6,    5)  6AB 7AA 
    *   6    0.033611  (    5,    6)  6AA 7AB 
    *   7    0.015214  (    3,    8)  4AA 9AB 
    *   8    0.015214  (    8,    3)  4AB 9AA 
    *   9   -0.011543  (    4,    6)  5AA 7AB 
    *  10   -0.011543  (    6,    4)  5AB 7AA 
    *  11   -0.009607  (    2,    5)  3AA 6AB 
    *  12   -0.009607  (    5,    2)  3AB 6AA 
    *  13   -0.007418  (    5,    0)  1AB 6AA 
    *  14   -0.007418  (    0,    5)  1AA 6AB 
    *  15   -0.004526  (    7,    3)  4AB 8AA 
    *  16   -0.004526  (    3,    7)  4AA 8AB 
    *  17    0.003299  (    4,    2)  3AB 5AA 
    *  18    0.003299  (    2,    4)  3AA 5AB 
    *  19    0.002547  (    4,    0)  1AB 5AA 
    *  20    0.002547  (    0,    4)  1AA 5AB 


   ==> DETCI root 99 information <==

    DETCI Root 99 energy =     7.946880211448103

   The 20 most important determinants:

    *   1    0.997410  (    9,    9)  10AX 
    *   2    0.047616  (    6,    6)  7AX 
    *   3   -0.027359  (    3,    9)  4AA 10AB 
    *   4   -0.027359  (    9,    3)  4AB 10AA 
    *   5    0.019474  (    3,    3)  4AX 
    *   6    0.013290  (    8,    8)  9AX 
    *   7    0.013290  (    7,    7)  8AX 
    *   8   -0.009305  (    1,    9)  2AA 10AB 
    *   9   -0.009305  (    9,    1)  2AB 10AA 
    *  10    0.007760  (    1,    3)  2AA 4AB 
    *  11    0.007760  (    3,    1)  2AB 4AA 
    *  12    0.007756  (    0,    0)  1AX 
    *  13    0.007586  (    2,    2)  3AX 
    *  14    0.007082  (    5,    5)  6AX 
    *  15    0.007082  (    4,    4)  5AX 
    *  16    0.006214  (    0,    2)  1AA 3AB 
    *  17    0.006214  (    2,    0)  1AB 3AA 
    *  18   -0.005350  (    2,    6)  3AA 7AB 
    *  19   -0.005350  (    6,    2)  3AB 7AA 
    *  20    0.004556  (    1,    1)  2AX 

		 "A good bug is a dead bug" 

			 - Starship Troopers

		 "I didn't write FORTRAN.  That's the problem."

			 - Edward Valeev


Properties will be evaluated at   0.000000,   0.000000,   0.000000 [a0]

Properties computed using the DETCI density matrix


 Multipole Moments:

 ------------------------------------------------------------------------------------
     Multipole            Electronic (a.u.)      Nuclear  (a.u.)        Total (a.u.)
 ------------------------------------------------------------------------------------

 L = 1.  Multiply by 2.5417464519 to convert [e a0] to [Debye]
 Dipole X            :          0.0000000            0.0000000            0.0000000
 Dipole Y            :         -0.0000000            0.0000000           -0.0000000
 Dipole Z            :         -0.0000000            0.0000000           -0.0000000
 Magnitude           :                                                    0.0000000

 ------------------------------------------------------------------------------------


Properties will be evaluated at   0.000000,   0.000000,   0.000000 [a0]

Properties computed using the CI density matrix


 Multipole Moments:

 ------------------------------------------------------------------------------------
     Multipole            Electronic (a.u.)      Nuclear  (a.u.)        Total (a.u.)
 ------------------------------------------------------------------------------------

 L = 1.  Multiply by 2.5417464519 to convert [e a0] to [Debye]
 Dipole X            :          0.0000000            0.0000000            0.0000000
 Dipole Y            :         -0.0000000            0.0000000           -0.0000000
 Dipole Z            :         -0.0000000            0.0000000           -0.0000000
 Magnitude           :                                                    0.0000000

 ------------------------------------------------------------------------------------

   ===> CI properties for all CI roots <=== 


Properties computed using the CI ROOT 0 density matrix


 Multipole Moments:

 ------------------------------------------------------------------------------------
     Multipole            Electronic (a.u.)      Nuclear  (a.u.)        Total (a.u.)
 ------------------------------------------------------------------------------------

 L = 1.  Multiply by 2.5417464519 to convert [e a0] to [Debye]
 Dipole X            :          0.0000000            0.0000000            0.0000000
 Dipole Y            :         -0.0000000            0.0000000           -0.0000000
 Dipole Z            :         -0.0000000            0.0000000           -0.0000000
 Magnitude           :                                                    0.0000000

 ------------------------------------------------------------------------------------

Properties computed using the CI ROOT 1 density matrix


 Multipole Moments:

 ------------------------------------------------------------------------------------
     Multipole            Electronic (a.u.)      Nuclear  (a.u.)        Total (a.u.)
 ------------------------------------------------------------------------------------

 L = 1.  Multiply by 2.5417464519 to convert [e a0] to [Debye]
 Dipole X            :         -0.0000000            0.0000000           -0.0000000
 Dipole Y            :         -0.0000000            0.0000000           -0.0000000
 Dipole Z            :         -0.0000000            0.0000000           -0.0000000
 Magnitude           :                                                    0.0000000

 ------------------------------------------------------------------------------------

Properties computed using the CI ROOT 2 density matrix


 Multipole Moments:

 ------------------------------------------------------------------------------------
     Multipole            Electronic (a.u.)      Nuclear  (a.u.)        Total (a.u.)
 ------------------------------------------------------------------------------------

 L = 1.  Multiply by 2.5417464519 to convert [e a0] to [Debye]
 Dipole X            :          0.0000000            0.0000000            0.0000000
 Dipole Y            :         -0.0000000            0.0000000           -0.0000000
 Dipole Z            :          0.0000000            0.0000000            0.0000000
 Magnitude           :                                                    0.0000000

 ------------------------------------------------------------------------------------

Properties computed using the CI ROOT 3 density matrix


 Multipole Moments:

 ------------------------------------------------------------------------------------
     Multipole            Electronic (a.u.)      Nuclear  (a.u.)        Total (a.u.)
 ------------------------------------------------------------------------------------

 L = 1.  Multiply by 2.5417464519 to convert [e a0] to [Debye]
 Dipole X            :          0.0000000            0.0000000            0.0000000
 Dipole Y            :         -0.0000000            0.0000000           -0.0000000
 Dipole Z            :         -0.0000000            0.0000000           -0.0000000
 Magnitude           :                                                    0.0000000

 ------------------------------------------------------------------------------------

Properties computed using the CI ROOT 4 density matrix


 Multipole Moments:

 ------------------------------------------------------------------------------------
     Multipole            Electronic (a.u.)      Nuclear  (a.u.)        Total (a.u.)
 ------------------------------------------------------------------------------------

 L = 1.  Multiply by 2.5417464519 to convert [e a0] to [Debye]
 Dipole X            :          0.0000000            0.0000000            0.0000000
 Dipole Y            :         -0.0000000            0.0000000           -0.0000000
 Dipole Z            :         -0.0000000            0.0000000           -0.0000000
 Magnitude           :                                                    0.0000000

 ------------------------------------------------------------------------------------

Properties computed using the CI ROOT 5 density matrix


 Multipole Moments:

 ------------------------------------------------------------------------------------
     Multipole            Electronic (a.u.)      Nuclear  (a.u.)        Total (a.u.)
 ------------------------------------------------------------------------------------

 L = 1.  Multiply by 2.5417464519 to convert [e a0] to [Debye]
 Dipole X            :          0.0000000            0.0000000            0.0000000
 Dipole Y            :          0.0000000            0.0000000            0.0000000
 Dipole Z            :          0.0000000            0.0000000            0.0000000
 Magnitude           :                                                    0.0000000

 ------------------------------------------------------------------------------------

Properties computed using the CI ROOT 6 density matrix


 Multipole Moments:

 ------------------------------------------------------------------------------------
     Multipole            Electronic (a.u.)      Nuclear  (a.u.)        Total (a.u.)
 ------------------------------------------------------------------------------------

 L = 1.  Multiply by 2.5417464519 to convert [e a0] to [Debye]
 Dipole X            :          0.0000000            0.0000000            0.0000000
 Dipole Y            :         -0.0000000            0.0000000           -0.0000000
 Dipole Z            :          0.0000000            0.0000000            0.0000000
 Magnitude           :                                                    0.0000000

 ------------------------------------------------------------------------------------

Properties computed using the CI ROOT 7 density matrix


 Multipole Moments:

 ------------------------------------------------------------------------------------
     Multipole            Electronic (a.u.)      Nuclear  (a.u.)        Total (a.u.)
 ------------------------------------------------------------------------------------

 L = 1.  Multiply by 2.5417464519 to convert [e a0] to [Debye]
 Dipole X            :          0.0000000            0.0000000            0.0000000
 Dipole Y            :         -0.0000000            0.0000000           -0.0000000
 Dipole Z            :         -0.0000000            0.0000000           -0.0000000
 Magnitude           :                                                    0.0000000

 ------------------------------------------------------------------------------------

Properties computed using the CI ROOT 8 density matrix


 Multipole Moments:

 ------------------------------------------------------------------------------------
     Multipole            Electronic (a.u.)      Nuclear  (a.u.)        Total (a.u.)
 ------------------------------------------------------------------------------------

 L = 1.  Multiply by 2.5417464519 to convert [e a0] to [Debye]
 Dipole X            :         -0.0000000            0.0000000           -0.0000000
 Dipole Y            :         -0.0000000            0.0000000           -0.0000000
 Dipole Z            :          0.0000000            0.0000000            0.0000000
 Magnitude           :                                                    0.0000000

 ------------------------------------------------------------------------------------

Properties computed using the CI ROOT 9 density matrix


 Multipole Moments:

 ------------------------------------------------------------------------------------
     Multipole            Electronic (a.u.)      Nuclear  (a.u.)        Total (a.u.)
 ------------------------------------------------------------------------------------

 L = 1.  Multiply by 2.5417464519 to convert [e a0] to [Debye]
 Dipole X            :          0.0000000            0.0000000            0.0000000
 Dipole Y            :         -0.0000000            0.0000000           -0.0000000
 Dipole Z            :          0.0000000            0.0000000            0.0000000
 Magnitude           :                                                    0.0000000

 ------------------------------------------------------------------------------------

Properties computed using the CI ROOT 10 density matrix


 Multipole Moments:

 ------------------------------------------------------------------------------------
     Multipole            Electronic (a.u.)      Nuclear  (a.u.)        Total (a.u.)
 ------------------------------------------------------------------------------------

 L = 1.  Multiply by 2.5417464519 to convert [e a0] to [Debye]
 Dipole X            :          0.0000000            0.0000000            0.0000000
 Dipole Y            :         -0.0000000            0.0000000           -0.0000000
 Dipole Z            :          0.0000000            0.0000000            0.0000000
 Magnitude           :                                                    0.0000000

 ------------------------------------------------------------------------------------

Properties computed using the CI ROOT 11 density matrix


 Multipole Moments:

 ------------------------------------------------------------------------------------
     Multipole            Electronic (a.u.)      Nuclear  (a.u.)        Total (a.u.)
 ------------------------------------------------------------------------------------

 L = 1.  Multiply by 2.5417464519 to convert [e a0] to [Debye]
 Dipole X            :          0.0000000            0.0000000            0.0000000
 Dipole Y            :          0.0000000            0.0000000            0.0000000
 Dipole Z            :         -0.0000000            0.0000000           -0.0000000
 Magnitude           :                                                    0.0000000

 ------------------------------------------------------------------------------------

Properties computed using the CI ROOT 12 density matrix


 Multipole Moments:

 ------------------------------------------------------------------------------------
     Multipole            Electronic (a.u.)      Nuclear  (a.u.)        Total (a.u.)
 ------------------------------------------------------------------------------------

 L = 1.  Multiply by 2.5417464519 to convert [e a0] to [Debye]
 Dipole X            :          0.0000000            0.0000000            0.0000000
 Dipole Y            :          0.0000000            0.0000000            0.0000000
 Dipole Z            :         -0.0000000            0.0000000           -0.0000000
 Magnitude           :                                                    0.0000000

 ------------------------------------------------------------------------------------

Properties computed using the CI ROOT 13 density matrix


 Multipole Moments:

 ------------------------------------------------------------------------------------
     Multipole            Electronic (a.u.)      Nuclear  (a.u.)        Total (a.u.)
 ------------------------------------------------------------------------------------

 L = 1.  Multiply by 2.5417464519 to convert [e a0] to [Debye]
 Dipole X            :         -0.0000000            0.0000000           -0.0000000
 Dipole Y            :         -0.0000000            0.0000000           -0.0000000
 Dipole Z            :         -0.0000000            0.0000000           -0.0000000
 Magnitude           :                                                    0.0000000

 ------------------------------------------------------------------------------------

Properties computed using the CI ROOT 14 density matrix


 Multipole Moments:

 ------------------------------------------------------------------------------------
     Multipole            Electronic (a.u.)      Nuclear  (a.u.)        Total (a.u.)
 ------------------------------------------------------------------------------------

 L = 1.  Multiply by 2.5417464519 to convert [e a0] to [Debye]
 Dipole X            :          0.0000000            0.0000000            0.0000000
 Dipole Y            :         -0.0000000            0.0000000           -0.0000000
 Dipole Z            :          0.0000000            0.0000000            0.0000000
 Magnitude           :                                                    0.0000000

 ------------------------------------------------------------------------------------

Properties computed using the CI ROOT 15 density matrix


 Multipole Moments:

 ------------------------------------------------------------------------------------
     Multipole            Electronic (a.u.)      Nuclear  (a.u.)        Total (a.u.)
 ------------------------------------------------------------------------------------

 L = 1.  Multiply by 2.5417464519 to convert [e a0] to [Debye]
 Dipole X            :         -0.0000000            0.0000000           -0.0000000
 Dipole Y            :         -0.0000000            0.0000000           -0.0000000
 Dipole Z            :         -0.0000000            0.0000000           -0.0000000
 Magnitude           :                                                    0.0000000

 ------------------------------------------------------------------------------------

Properties computed using the CI ROOT 16 density matrix


 Multipole Moments:

 ------------------------------------------------------------------------------------
     Multipole            Electronic (a.u.)      Nuclear  (a.u.)        Total (a.u.)
 ------------------------------------------------------------------------------------

 L = 1.  Multiply by 2.5417464519 to convert [e a0] to [Debye]
 Dipole X            :          0.0000000            0.0000000            0.0000000
 Dipole Y            :          0.0000000            0.0000000            0.0000000
 Dipole Z            :          0.0000000            0.0000000            0.0000000
 Magnitude           :                                                    0.0000000

 ------------------------------------------------------------------------------------

Properties computed using the CI ROOT 17 density matrix


 Multipole Moments:

 ------------------------------------------------------------------------------------
     Multipole            Electronic (a.u.)      Nuclear  (a.u.)        Total (a.u.)
 ------------------------------------------------------------------------------------

 L = 1.  Multiply by 2.5417464519 to convert [e a0] to [Debye]
 Dipole X            :         -0.0000000            0.0000000           -0.0000000
 Dipole Y            :          0.0000000            0.0000000            0.0000000
 Dipole Z            :          0.0000000            0.0000000            0.0000000
 Magnitude           :                                                    0.0000000

 ------------------------------------------------------------------------------------

Properties computed using the CI ROOT 18 density matrix


 Multipole Moments:

 ------------------------------------------------------------------------------------
     Multipole            Electronic (a.u.)      Nuclear  (a.u.)        Total (a.u.)
 ------------------------------------------------------------------------------------

 L = 1.  Multiply by 2.5417464519 to convert [e a0] to [Debye]
 Dipole X            :          0.0000000            0.0000000            0.0000000
 Dipole Y            :          0.0000000            0.0000000            0.0000000
 Dipole Z            :          0.0000000            0.0000000            0.0000000
 Magnitude           :                                                    0.0000000

 ------------------------------------------------------------------------------------

Properties computed using the CI ROOT 19 density matrix


 Multipole Moments:

 ------------------------------------------------------------------------------------
     Multipole            Electronic (a.u.)      Nuclear  (a.u.)        Total (a.u.)
 ------------------------------------------------------------------------------------

 L = 1.  Multiply by 2.5417464519 to convert [e a0] to [Debye]
 Dipole X            :          0.0000000            0.0000000            0.0000000
 Dipole Y            :         -0.0000000            0.0000000           -0.0000000
 Dipole Z            :          0.0000000            0.0000000            0.0000000
 Magnitude           :                                                    0.0000000

 ------------------------------------------------------------------------------------

Properties computed using the CI ROOT 20 density matrix


 Multipole Moments:

 ------------------------------------------------------------------------------------
     Multipole            Electronic (a.u.)      Nuclear  (a.u.)        Total (a.u.)
 ------------------------------------------------------------------------------------

 L = 1.  Multiply by 2.5417464519 to convert [e a0] to [Debye]
 Dipole X            :         -0.0000000            0.0000000           -0.0000000
 Dipole Y            :          0.0000000            0.0000000            0.0000000
 Dipole Z            :          0.0000000            0.0000000            0.0000000
 Magnitude           :                                                    0.0000000

 ------------------------------------------------------------------------------------

Properties computed using the CI ROOT 21 density matrix


 Multipole Moments:

 ------------------------------------------------------------------------------------
     Multipole            Electronic (a.u.)      Nuclear  (a.u.)        Total (a.u.)
 ------------------------------------------------------------------------------------

 L = 1.  Multiply by 2.5417464519 to convert [e a0] to [Debye]
 Dipole X            :          0.0000000            0.0000000            0.0000000
 Dipole Y            :          0.0000000            0.0000000            0.0000000
 Dipole Z            :          0.0000000            0.0000000            0.0000000
 Magnitude           :                                                    0.0000000

 ------------------------------------------------------------------------------------

Properties computed using the CI ROOT 22 density matrix


 Multipole Moments:

 ------------------------------------------------------------------------------------
     Multipole            Electronic (a.u.)      Nuclear  (a.u.)        Total (a.u.)
 ------------------------------------------------------------------------------------

 L = 1.  Multiply by 2.5417464519 to convert [e a0] to [Debye]
 Dipole X            :          0.0000000            0.0000000            0.0000000
 Dipole Y            :         -0.0000000            0.0000000           -0.0000000
 Dipole Z            :         -0.0000000            0.0000000           -0.0000000
 Magnitude           :                                                    0.0000000

 ------------------------------------------------------------------------------------

Properties computed using the CI ROOT 23 density matrix


 Multipole Moments:

 ------------------------------------------------------------------------------------
     Multipole            Electronic (a.u.)      Nuclear  (a.u.)        Total (a.u.)
 ------------------------------------------------------------------------------------

 L = 1.  Multiply by 2.5417464519 to convert [e a0] to [Debye]
 Dipole X            :         -0.0000000            0.0000000           -0.0000000
 Dipole Y            :         -0.0000000            0.0000000           -0.0000000
 Dipole Z            :         -0.0000000            0.0000000           -0.0000000
 Magnitude           :                                                    0.0000000

 ------------------------------------------------------------------------------------

Properties computed using the CI ROOT 24 density matrix


 Multipole Moments:

 ------------------------------------------------------------------------------------
     Multipole            Electronic (a.u.)      Nuclear  (a.u.)        Total (a.u.)
 ------------------------------------------------------------------------------------

 L = 1.  Multiply by 2.5417464519 to convert [e a0] to [Debye]
 Dipole X            :          0.0000000            0.0000000            0.0000000
 Dipole Y            :         -0.0000000            0.0000000           -0.0000000
 Dipole Z            :         -0.0000000            0.0000000           -0.0000000
 Magnitude           :                                                    0.0000000

 ------------------------------------------------------------------------------------

Properties computed using the CI ROOT 25 density matrix


 Multipole Moments:

 ------------------------------------------------------------------------------------
     Multipole            Electronic (a.u.)      Nuclear  (a.u.)        Total (a.u.)
 ------------------------------------------------------------------------------------

 L = 1.  Multiply by 2.5417464519 to convert [e a0] to [Debye]
 Dipole X            :          0.0000000            0.0000000            0.0000000
 Dipole Y            :          0.0000000            0.0000000            0.0000000
 Dipole Z            :          0.0000000            0.0000000            0.0000000
 Magnitude           :                                                    0.0000000

 ------------------------------------------------------------------------------------

Properties computed using the CI ROOT 26 density matrix


 Multipole Moments:

 ------------------------------------------------------------------------------------
     Multipole            Electronic (a.u.)      Nuclear  (a.u.)        Total (a.u.)
 ------------------------------------------------------------------------------------

 L = 1.  Multiply by 2.5417464519 to convert [e a0] to [Debye]
 Dipole X            :          0.0000000            0.0000000            0.0000000
 Dipole Y            :         -0.0000000            0.0000000           -0.0000000
 Dipole Z            :         -0.0000000            0.0000000           -0.0000000
 Magnitude           :                                                    0.0000000

 ------------------------------------------------------------------------------------

Properties computed using the CI ROOT 27 density matrix


 Multipole Moments:

 ------------------------------------------------------------------------------------
     Multipole            Electronic (a.u.)      Nuclear  (a.u.)        Total (a.u.)
 ------------------------------------------------------------------------------------

 L = 1.  Multiply by 2.5417464519 to convert [e a0] to [Debye]
 Dipole X            :          0.0000000            0.0000000            0.0000000
 Dipole Y            :         -0.0000000            0.0000000           -0.0000000
 Dipole Z            :         -0.0000000            0.0000000           -0.0000000
 Magnitude           :                                                    0.0000000

 ------------------------------------------------------------------------------------

Properties computed using the CI ROOT 28 density matrix


 Multipole Moments:

 ------------------------------------------------------------------------------------
     Multipole            Electronic (a.u.)      Nuclear  (a.u.)        Total (a.u.)
 ------------------------------------------------------------------------------------

 L = 1.  Multiply by 2.5417464519 to convert [e a0] to [Debye]
 Dipole X            :         -0.0000000            0.0000000           -0.0000000
 Dipole Y            :         -0.0000000            0.0000000           -0.0000000
 Dipole Z            :          0.0000000            0.0000000            0.0000000
 Magnitude           :                                                    0.0000000

 ------------------------------------------------------------------------------------

Properties computed using the CI ROOT 29 density matrix


 Multipole Moments:

 ------------------------------------------------------------------------------------
     Multipole            Electronic (a.u.)      Nuclear  (a.u.)        Total (a.u.)
 ------------------------------------------------------------------------------------

 L = 1.  Multiply by 2.5417464519 to convert [e a0] to [Debye]
 Dipole X            :          0.0000000            0.0000000            0.0000000
 Dipole Y            :          0.0000000            0.0000000            0.0000000
 Dipole Z            :          0.0000000            0.0000000            0.0000000
 Magnitude           :                                                    0.0000000

 ------------------------------------------------------------------------------------

Properties computed using the CI ROOT 30 density matrix


 Multipole Moments:

 ------------------------------------------------------------------------------------
     Multipole            Electronic (a.u.)      Nuclear  (a.u.)        Total (a.u.)
 ------------------------------------------------------------------------------------

 L = 1.  Multiply by 2.5417464519 to convert [e a0] to [Debye]
 Dipole X            :          0.0000000            0.0000000            0.0000000
 Dipole Y            :         -0.0000000            0.0000000           -0.0000000
 Dipole Z            :          0.0000000            0.0000000            0.0000000
 Magnitude           :                                                    0.0000000

 ------------------------------------------------------------------------------------

Properties computed using the CI ROOT 31 density matrix


 Multipole Moments:

 ------------------------------------------------------------------------------------
     Multipole            Electronic (a.u.)      Nuclear  (a.u.)        Total (a.u.)
 ------------------------------------------------------------------------------------

 L = 1.  Multiply by 2.5417464519 to convert [e a0] to [Debye]
 Dipole X            :         -0.0000000            0.0000000           -0.0000000
 Dipole Y            :         -0.0000000            0.0000000           -0.0000000
 Dipole Z            :         -0.0000000            0.0000000           -0.0000000
 Magnitude           :                                                    0.0000000

 ------------------------------------------------------------------------------------

Properties computed using the CI ROOT 32 density matrix


 Multipole Moments:

 ------------------------------------------------------------------------------------
     Multipole            Electronic (a.u.)      Nuclear  (a.u.)        Total (a.u.)
 ------------------------------------------------------------------------------------

 L = 1.  Multiply by 2.5417464519 to convert [e a0] to [Debye]
 Dipole X            :          0.0000000            0.0000000            0.0000000
 Dipole Y            :          0.0000000            0.0000000            0.0000000
 Dipole Z            :         -0.0000000            0.0000000           -0.0000000
 Magnitude           :                                                    0.0000000

 ------------------------------------------------------------------------------------

Properties computed using the CI ROOT 33 density matrix


 Multipole Moments:

 ------------------------------------------------------------------------------------
     Multipole            Electronic (a.u.)      Nuclear  (a.u.)        Total (a.u.)
 ------------------------------------------------------------------------------------

 L = 1.  Multiply by 2.5417464519 to convert [e a0] to [Debye]
 Dipole X            :          0.0000000            0.0000000            0.0000000
 Dipole Y            :          0.0000000            0.0000000            0.0000000
 Dipole Z            :          0.0000000            0.0000000            0.0000000
 Magnitude           :                                                    0.0000000

 ------------------------------------------------------------------------------------

Properties computed using the CI ROOT 34 density matrix


 Multipole Moments:

 ------------------------------------------------------------------------------------
     Multipole            Electronic (a.u.)      Nuclear  (a.u.)        Total (a.u.)
 ------------------------------------------------------------------------------------

 L = 1.  Multiply by 2.5417464519 to convert [e a0] to [Debye]
 Dipole X            :         -0.0000000            0.0000000           -0.0000000
 Dipole Y            :         -0.0000000            0.0000000           -0.0000000
 Dipole Z            :          0.0000000            0.0000000            0.0000000
 Magnitude           :                                                    0.0000000

 ------------------------------------------------------------------------------------

Properties computed using the CI ROOT 35 density matrix


 Multipole Moments:

 ------------------------------------------------------------------------------------
     Multipole            Electronic (a.u.)      Nuclear  (a.u.)        Total (a.u.)
 ------------------------------------------------------------------------------------

 L = 1.  Multiply by 2.5417464519 to convert [e a0] to [Debye]
 Dipole X            :         -0.0000000            0.0000000           -0.0000000
 Dipole Y            :          0.0000000            0.0000000            0.0000000
 Dipole Z            :         -0.0000000            0.0000000           -0.0000000
 Magnitude           :                                                    0.0000000

 ------------------------------------------------------------------------------------

Properties computed using the CI ROOT 36 density matrix


 Multipole Moments:

 ------------------------------------------------------------------------------------
     Multipole            Electronic (a.u.)      Nuclear  (a.u.)        Total (a.u.)
 ------------------------------------------------------------------------------------

 L = 1.  Multiply by 2.5417464519 to convert [e a0] to [Debye]
 Dipole X            :          0.0000000            0.0000000            0.0000000
 Dipole Y            :          0.0000000            0.0000000            0.0000000
 Dipole Z            :          0.0000000            0.0000000            0.0000000
 Magnitude           :                                                    0.0000000

 ------------------------------------------------------------------------------------

Properties computed using the CI ROOT 37 density matrix


 Multipole Moments:

 ------------------------------------------------------------------------------------
     Multipole            Electronic (a.u.)      Nuclear  (a.u.)        Total (a.u.)
 ------------------------------------------------------------------------------------

 L = 1.  Multiply by 2.5417464519 to convert [e a0] to [Debye]
 Dipole X            :          0.0000000            0.0000000            0.0000000
 Dipole Y            :          0.0000000            0.0000000            0.0000000
 Dipole Z            :          0.0000000            0.0000000            0.0000000
 Magnitude           :                                                    0.0000000

 ------------------------------------------------------------------------------------

Properties computed using the CI ROOT 38 density matrix


 Multipole Moments:

 ------------------------------------------------------------------------------------
     Multipole            Electronic (a.u.)      Nuclear  (a.u.)        Total (a.u.)
 ------------------------------------------------------------------------------------

 L = 1.  Multiply by 2.5417464519 to convert [e a0] to [Debye]
 Dipole X            :         -0.0000000            0.0000000           -0.0000000
 Dipole Y            :         -0.0000000            0.0000000           -0.0000000
 Dipole Z            :          0.0000000            0.0000000            0.0000000
 Magnitude           :                                                    0.0000000

 ------------------------------------------------------------------------------------

Properties computed using the CI ROOT 39 density matrix


 Multipole Moments:

 ------------------------------------------------------------------------------------
     Multipole            Electronic (a.u.)      Nuclear  (a.u.)        Total (a.u.)
 ------------------------------------------------------------------------------------

 L = 1.  Multiply by 2.5417464519 to convert [e a0] to [Debye]
 Dipole X            :         -0.0000000            0.0000000           -0.0000000
 Dipole Y            :         -0.0000000            0.0000000           -0.0000000
 Dipole Z            :         -0.0000000            0.0000000           -0.0000000
 Magnitude           :                                                    0.0000000

 ------------------------------------------------------------------------------------

Properties computed using the CI ROOT 40 density matrix


 Multipole Moments:

 ------------------------------------------------------------------------------------
     Multipole            Electronic (a.u.)      Nuclear  (a.u.)        Total (a.u.)
 ------------------------------------------------------------------------------------

 L = 1.  Multiply by 2.5417464519 to convert [e a0] to [Debye]
 Dipole X            :          0.0000000            0.0000000            0.0000000
 Dipole Y            :          0.0000000            0.0000000            0.0000000
 Dipole Z            :          0.0000000            0.0000000            0.0000000
 Magnitude           :                                                    0.0000000

 ------------------------------------------------------------------------------------

Properties computed using the CI ROOT 41 density matrix


 Multipole Moments:

 ------------------------------------------------------------------------------------
     Multipole            Electronic (a.u.)      Nuclear  (a.u.)        Total (a.u.)
 ------------------------------------------------------------------------------------

 L = 1.  Multiply by 2.5417464519 to convert [e a0] to [Debye]
 Dipole X            :          0.0000000            0.0000000            0.0000000
 Dipole Y            :          0.0000000            0.0000000            0.0000000
 Dipole Z            :          0.0000000            0.0000000            0.0000000
 Magnitude           :                                                    0.0000000

 ------------------------------------------------------------------------------------

Properties computed using the CI ROOT 42 density matrix


 Multipole Moments:

 ------------------------------------------------------------------------------------
     Multipole            Electronic (a.u.)      Nuclear  (a.u.)        Total (a.u.)
 ------------------------------------------------------------------------------------

 L = 1.  Multiply by 2.5417464519 to convert [e a0] to [Debye]
 Dipole X            :         -0.0000000            0.0000000           -0.0000000
 Dipole Y            :         -0.0000000            0.0000000           -0.0000000
 Dipole Z            :         -0.0000000            0.0000000           -0.0000000
 Magnitude           :                                                    0.0000000

 ------------------------------------------------------------------------------------

Properties computed using the CI ROOT 43 density matrix


 Multipole Moments:

 ------------------------------------------------------------------------------------
     Multipole            Electronic (a.u.)      Nuclear  (a.u.)        Total (a.u.)
 ------------------------------------------------------------------------------------

 L = 1.  Multiply by 2.5417464519 to convert [e a0] to [Debye]
 Dipole X            :         -0.0000000            0.0000000           -0.0000000
 Dipole Y            :          0.0000000            0.0000000            0.0000000
 Dipole Z            :         -0.0000000            0.0000000           -0.0000000
 Magnitude           :                                                    0.0000000

 ------------------------------------------------------------------------------------

Properties computed using the CI ROOT 44 density matrix


 Multipole Moments:

 ------------------------------------------------------------------------------------
     Multipole            Electronic (a.u.)      Nuclear  (a.u.)        Total (a.u.)
 ------------------------------------------------------------------------------------

 L = 1.  Multiply by 2.5417464519 to convert [e a0] to [Debye]
 Dipole X            :          0.0000000            0.0000000            0.0000000
 Dipole Y            :         -0.0000000            0.0000000           -0.0000000
 Dipole Z            :         -0.0000000            0.0000000           -0.0000000
 Magnitude           :                                                    0.0000000

 ------------------------------------------------------------------------------------

Properties computed using the CI ROOT 45 density matrix


 Multipole Moments:

 ------------------------------------------------------------------------------------
     Multipole            Electronic (a.u.)      Nuclear  (a.u.)        Total (a.u.)
 ------------------------------------------------------------------------------------

 L = 1.  Multiply by 2.5417464519 to convert [e a0] to [Debye]
 Dipole X            :         -0.0000000            0.0000000           -0.0000000
 Dipole Y            :         -0.0000000            0.0000000           -0.0000000
 Dipole Z            :         -0.0000000            0.0000000           -0.0000000
 Magnitude           :                                                    0.0000000

 ------------------------------------------------------------------------------------

Properties computed using the CI ROOT 46 density matrix


 Multipole Moments:

 ------------------------------------------------------------------------------------
     Multipole            Electronic (a.u.)      Nuclear  (a.u.)        Total (a.u.)
 ------------------------------------------------------------------------------------

 L = 1.  Multiply by 2.5417464519 to convert [e a0] to [Debye]
 Dipole X            :         -0.0000000            0.0000000           -0.0000000
 Dipole Y            :         -0.0000000            0.0000000           -0.0000000
 Dipole Z            :         -0.0000000            0.0000000           -0.0000000
 Magnitude           :                                                    0.0000000

 ------------------------------------------------------------------------------------

Properties computed using the CI ROOT 47 density matrix


 Multipole Moments:

 ------------------------------------------------------------------------------------
     Multipole            Electronic (a.u.)      Nuclear  (a.u.)        Total (a.u.)
 ------------------------------------------------------------------------------------

 L = 1.  Multiply by 2.5417464519 to convert [e a0] to [Debye]
 Dipole X            :         -0.0000000            0.0000000           -0.0000000
 Dipole Y            :          0.0000000            0.0000000            0.0000000
 Dipole Z            :         -0.0000000            0.0000000           -0.0000000
 Magnitude           :                                                    0.0000000

 ------------------------------------------------------------------------------------

Properties computed using the CI ROOT 48 density matrix


 Multipole Moments:

 ------------------------------------------------------------------------------------
     Multipole            Electronic (a.u.)      Nuclear  (a.u.)        Total (a.u.)
 ------------------------------------------------------------------------------------

 L = 1.  Multiply by 2.5417464519 to convert [e a0] to [Debye]
 Dipole X            :         -0.0000000            0.0000000           -0.0000000
 Dipole Y            :         -0.0000000            0.0000000           -0.0000000
 Dipole Z            :         -0.0000000            0.0000000           -0.0000000
 Magnitude           :                                                    0.0000000

 ------------------------------------------------------------------------------------

Properties computed using the CI ROOT 49 density matrix


 Multipole Moments:

 ------------------------------------------------------------------------------------
     Multipole            Electronic (a.u.)      Nuclear  (a.u.)        Total (a.u.)
 ------------------------------------------------------------------------------------

 L = 1.  Multiply by 2.5417464519 to convert [e a0] to [Debye]
 Dipole X            :         -0.0000000            0.0000000           -0.0000000
 Dipole Y            :         -0.0000000            0.0000000           -0.0000000
 Dipole Z            :         -0.0000000            0.0000000           -0.0000000
 Magnitude           :                                                    0.0000000

 ------------------------------------------------------------------------------------

Properties computed using the CI ROOT 50 density matrix


 Multipole Moments:

 ------------------------------------------------------------------------------------
     Multipole            Electronic (a.u.)      Nuclear  (a.u.)        Total (a.u.)
 ------------------------------------------------------------------------------------

 L = 1.  Multiply by 2.5417464519 to convert [e a0] to [Debye]
 Dipole X            :         -0.0000000            0.0000000           -0.0000000
 Dipole Y            :          0.0000000            0.0000000            0.0000000
 Dipole Z            :          0.0000000            0.0000000            0.0000000
 Magnitude           :                                                    0.0000000

 ------------------------------------------------------------------------------------

Properties computed using the CI ROOT 51 density matrix


 Multipole Moments:

 ------------------------------------------------------------------------------------
     Multipole            Electronic (a.u.)      Nuclear  (a.u.)        Total (a.u.)
 ------------------------------------------------------------------------------------

 L = 1.  Multiply by 2.5417464519 to convert [e a0] to [Debye]
 Dipole X            :          0.0000000            0.0000000            0.0000000
 Dipole Y            :         -0.0000000            0.0000000           -0.0000000
 Dipole Z            :         -0.0000000            0.0000000           -0.0000000
 Magnitude           :                                                    0.0000000

 ------------------------------------------------------------------------------------

Properties computed using the CI ROOT 52 density matrix


 Multipole Moments:

 ------------------------------------------------------------------------------------
     Multipole            Electronic (a.u.)      Nuclear  (a.u.)        Total (a.u.)
 ------------------------------------------------------------------------------------

 L = 1.  Multiply by 2.5417464519 to convert [e a0] to [Debye]
 Dipole X            :         -0.0000000            0.0000000           -0.0000000
 Dipole Y            :          0.0000000            0.0000000            0.0000000
 Dipole Z            :          0.0000000            0.0000000            0.0000000
 Magnitude           :                                                    0.0000000

 ------------------------------------------------------------------------------------

Properties computed using the CI ROOT 53 density matrix


 Multipole Moments:

 ------------------------------------------------------------------------------------
     Multipole            Electronic (a.u.)      Nuclear  (a.u.)        Total (a.u.)
 ------------------------------------------------------------------------------------

 L = 1.  Multiply by 2.5417464519 to convert [e a0] to [Debye]
 Dipole X            :          0.0000000            0.0000000            0.0000000
 Dipole Y            :          0.0000000            0.0000000            0.0000000
 Dipole Z            :         -0.0000000            0.0000000           -0.0000000
 Magnitude           :                                                    0.0000000

 ------------------------------------------------------------------------------------

Properties computed using the CI ROOT 54 density matrix


 Multipole Moments:

 ------------------------------------------------------------------------------------
     Multipole            Electronic (a.u.)      Nuclear  (a.u.)        Total (a.u.)
 ------------------------------------------------------------------------------------

 L = 1.  Multiply by 2.5417464519 to convert [e a0] to [Debye]
 Dipole X            :          0.0000000            0.0000000            0.0000000
 Dipole Y            :          0.0000000            0.0000000            0.0000000
 Dipole Z            :          0.0000000            0.0000000            0.0000000
 Magnitude           :                                                    0.0000000

 ------------------------------------------------------------------------------------

Properties computed using the CI ROOT 55 density matrix


 Multipole Moments:

 ------------------------------------------------------------------------------------
     Multipole            Electronic (a.u.)      Nuclear  (a.u.)        Total (a.u.)
 ------------------------------------------------------------------------------------

 L = 1.  Multiply by 2.5417464519 to convert [e a0] to [Debye]
 Dipole X            :          0.0000000            0.0000000            0.0000000
 Dipole Y            :          0.0000000            0.0000000            0.0000000
 Dipole Z            :         -0.0000000            0.0000000           -0.0000000
 Magnitude           :                                                    0.0000000

 ------------------------------------------------------------------------------------

Properties computed using the CI ROOT 56 density matrix


 Multipole Moments:

 ------------------------------------------------------------------------------------
     Multipole            Electronic (a.u.)      Nuclear  (a.u.)        Total (a.u.)
 ------------------------------------------------------------------------------------

 L = 1.  Multiply by 2.5417464519 to convert [e a0] to [Debye]
 Dipole X            :          0.0000000            0.0000000            0.0000000
 Dipole Y            :         -0.0000000            0.0000000           -0.0000000
 Dipole Z            :          0.0000000            0.0000000            0.0000000
 Magnitude           :                                                    0.0000000

 ------------------------------------------------------------------------------------

Properties computed using the CI ROOT 57 density matrix


 Multipole Moments:

 ------------------------------------------------------------------------------------
     Multipole            Electronic (a.u.)      Nuclear  (a.u.)        Total (a.u.)
 ------------------------------------------------------------------------------------

 L = 1.  Multiply by 2.5417464519 to convert [e a0] to [Debye]
 Dipole X            :         -0.0000000            0.0000000           -0.0000000
 Dipole Y            :          0.0000000            0.0000000            0.0000000
 Dipole Z            :          0.0000000            0.0000000            0.0000000
 Magnitude           :                                                    0.0000000

 ------------------------------------------------------------------------------------

Properties computed using the CI ROOT 58 density matrix


 Multipole Moments:

 ------------------------------------------------------------------------------------
     Multipole            Electronic (a.u.)      Nuclear  (a.u.)        Total (a.u.)
 ------------------------------------------------------------------------------------

 L = 1.  Multiply by 2.5417464519 to convert [e a0] to [Debye]
 Dipole X            :          0.0000000            0.0000000            0.0000000
 Dipole Y            :         -0.0000000            0.0000000           -0.0000000
 Dipole Z            :          0.0000000            0.0000000            0.0000000
 Magnitude           :                                                    0.0000000

 ------------------------------------------------------------------------------------

Properties computed using the CI ROOT 59 density matrix


 Multipole Moments:

 ------------------------------------------------------------------------------------
     Multipole            Electronic (a.u.)      Nuclear  (a.u.)        Total (a.u.)
 ------------------------------------------------------------------------------------

 L = 1.  Multiply by 2.5417464519 to convert [e a0] to [Debye]
 Dipole X            :         -0.0000000            0.0000000           -0.0000000
 Dipole Y            :          0.0000000            0.0000000            0.0000000
 Dipole Z            :          0.0000000            0.0000000            0.0000000
 Magnitude           :                                                    0.0000000

 ------------------------------------------------------------------------------------

Properties computed using the CI ROOT 60 density matrix


 Multipole Moments:

 ------------------------------------------------------------------------------------
     Multipole            Electronic (a.u.)      Nuclear  (a.u.)        Total (a.u.)
 ------------------------------------------------------------------------------------

 L = 1.  Multiply by 2.5417464519 to convert [e a0] to [Debye]
 Dipole X            :          0.0000000            0.0000000            0.0000000
 Dipole Y            :          0.0000000            0.0000000            0.0000000
 Dipole Z            :          0.0000000            0.0000000            0.0000000
 Magnitude           :                                                    0.0000000

 ------------------------------------------------------------------------------------

Properties computed using the CI ROOT 61 density matrix


 Multipole Moments:

 ------------------------------------------------------------------------------------
     Multipole            Electronic (a.u.)      Nuclear  (a.u.)        Total (a.u.)
 ------------------------------------------------------------------------------------

 L = 1.  Multiply by 2.5417464519 to convert [e a0] to [Debye]
 Dipole X            :          0.0000000            0.0000000            0.0000000
 Dipole Y            :         -0.0000000            0.0000000           -0.0000000
 Dipole Z            :          0.0000000            0.0000000            0.0000000
 Magnitude           :                                                    0.0000000

 ------------------------------------------------------------------------------------

Properties computed using the CI ROOT 62 density matrix


 Multipole Moments:

 ------------------------------------------------------------------------------------
     Multipole            Electronic (a.u.)      Nuclear  (a.u.)        Total (a.u.)
 ------------------------------------------------------------------------------------

 L = 1.  Multiply by 2.5417464519 to convert [e a0] to [Debye]
 Dipole X            :         -0.0000000            0.0000000           -0.0000000
 Dipole Y            :         -0.0000000            0.0000000           -0.0000000
 Dipole Z            :         -0.0000000            0.0000000           -0.0000000
 Magnitude           :                                                    0.0000000

 ------------------------------------------------------------------------------------

Properties computed using the CI ROOT 63 density matrix


 Multipole Moments:

 ------------------------------------------------------------------------------------
     Multipole            Electronic (a.u.)      Nuclear  (a.u.)        Total (a.u.)
 ------------------------------------------------------------------------------------

 L = 1.  Multiply by 2.5417464519 to convert [e a0] to [Debye]
 Dipole X            :          0.0000000            0.0000000            0.0000000
 Dipole Y            :         -0.0000000            0.0000000           -0.0000000
 Dipole Z            :         -0.0000000            0.0000000           -0.0000000
 Magnitude           :                                                    0.0000000

 ------------------------------------------------------------------------------------

Properties computed using the CI ROOT 64 density matrix


 Multipole Moments:

 ------------------------------------------------------------------------------------
     Multipole            Electronic (a.u.)      Nuclear  (a.u.)        Total (a.u.)
 ------------------------------------------------------------------------------------

 L = 1.  Multiply by 2.5417464519 to convert [e a0] to [Debye]
 Dipole X            :         -0.0000000            0.0000000           -0.0000000
 Dipole Y            :         -0.0000000            0.0000000           -0.0000000
 Dipole Z            :          0.0000000            0.0000000            0.0000000
 Magnitude           :                                                    0.0000000

 ------------------------------------------------------------------------------------

Properties computed using the CI ROOT 65 density matrix


 Multipole Moments:

 ------------------------------------------------------------------------------------
     Multipole            Electronic (a.u.)      Nuclear  (a.u.)        Total (a.u.)
 ------------------------------------------------------------------------------------

 L = 1.  Multiply by 2.5417464519 to convert [e a0] to [Debye]
 Dipole X            :         -0.0000000            0.0000000           -0.0000000
 Dipole Y            :          0.0000000            0.0000000            0.0000000
 Dipole Z            :          0.0000000            0.0000000            0.0000000
 Magnitude           :                                                    0.0000000

 ------------------------------------------------------------------------------------

Properties computed using the CI ROOT 66 density matrix


 Multipole Moments:

 ------------------------------------------------------------------------------------
     Multipole            Electronic (a.u.)      Nuclear  (a.u.)        Total (a.u.)
 ------------------------------------------------------------------------------------

 L = 1.  Multiply by 2.5417464519 to convert [e a0] to [Debye]
 Dipole X            :         -0.0000000            0.0000000           -0.0000000
 Dipole Y            :          0.0000000            0.0000000            0.0000000
 Dipole Z            :         -0.0000000            0.0000000           -0.0000000
 Magnitude           :                                                    0.0000000

 ------------------------------------------------------------------------------------

Properties computed using the CI ROOT 67 density matrix


 Multipole Moments:

 ------------------------------------------------------------------------------------
     Multipole            Electronic (a.u.)      Nuclear  (a.u.)        Total (a.u.)
 ------------------------------------------------------------------------------------

 L = 1.  Multiply by 2.5417464519 to convert [e a0] to [Debye]
 Dipole X            :         -0.0000000            0.0000000           -0.0000000
 Dipole Y            :         -0.0000000            0.0000000           -0.0000000
 Dipole Z            :          0.0000000            0.0000000            0.0000000
 Magnitude           :                                                    0.0000000

 ------------------------------------------------------------------------------------

Properties computed using the CI ROOT 68 density matrix


 Multipole Moments:

 ------------------------------------------------------------------------------------
     Multipole            Electronic (a.u.)      Nuclear  (a.u.)        Total (a.u.)
 ------------------------------------------------------------------------------------

 L = 1.  Multiply by 2.5417464519 to convert [e a0] to [Debye]
 Dipole X            :         -0.0000000            0.0000000           -0.0000000
 Dipole Y            :         -0.0000000            0.0000000           -0.0000000
 Dipole Z            :          0.0000000            0.0000000            0.0000000
 Magnitude           :                                                    0.0000000

 ------------------------------------------------------------------------------------

Properties computed using the CI ROOT 69 density matrix


 Multipole Moments:

 ------------------------------------------------------------------------------------
     Multipole            Electronic (a.u.)      Nuclear  (a.u.)        Total (a.u.)
 ------------------------------------------------------------------------------------

 L = 1.  Multiply by 2.5417464519 to convert [e a0] to [Debye]
 Dipole X            :          0.0000000            0.0000000            0.0000000
 Dipole Y            :         -0.0000000            0.0000000           -0.0000000
 Dipole Z            :         -0.0000000            0.0000000           -0.0000000
 Magnitude           :                                                    0.0000000

 ------------------------------------------------------------------------------------

Properties computed using the CI ROOT 70 density matrix


 Multipole Moments:

 ------------------------------------------------------------------------------------
     Multipole            Electronic (a.u.)      Nuclear  (a.u.)        Total (a.u.)
 ------------------------------------------------------------------------------------

 L = 1.  Multiply by 2.5417464519 to convert [e a0] to [Debye]
 Dipole X            :          0.0000000            0.0000000            0.0000000
 Dipole Y            :          0.0000000            0.0000000            0.0000000
 Dipole Z            :          0.0000000            0.0000000            0.0000000
 Magnitude           :                                                    0.0000000

 ------------------------------------------------------------------------------------

Properties computed using the CI ROOT 71 density matrix


 Multipole Moments:

 ------------------------------------------------------------------------------------
     Multipole            Electronic (a.u.)      Nuclear  (a.u.)        Total (a.u.)
 ------------------------------------------------------------------------------------

 L = 1.  Multiply by 2.5417464519 to convert [e a0] to [Debye]
 Dipole X            :         -0.0000000            0.0000000           -0.0000000
 Dipole Y            :         -0.0000000            0.0000000           -0.0000000
 Dipole Z            :          0.0000000            0.0000000            0.0000000
 Magnitude           :                                                    0.0000000

 ------------------------------------------------------------------------------------

Properties computed using the CI ROOT 72 density matrix


 Multipole Moments:

 ------------------------------------------------------------------------------------
     Multipole            Electronic (a.u.)      Nuclear  (a.u.)        Total (a.u.)
 ------------------------------------------------------------------------------------

 L = 1.  Multiply by 2.5417464519 to convert [e a0] to [Debye]
 Dipole X            :          0.0000000            0.0000000            0.0000000
 Dipole Y            :          0.0000000            0.0000000            0.0000000
 Dipole Z            :          0.0000000            0.0000000            0.0000000
 Magnitude           :                                                    0.0000000

 ------------------------------------------------------------------------------------

Properties computed using the CI ROOT 73 density matrix


 Multipole Moments:

 ------------------------------------------------------------------------------------
     Multipole            Electronic (a.u.)      Nuclear  (a.u.)        Total (a.u.)
 ------------------------------------------------------------------------------------

 L = 1.  Multiply by 2.5417464519 to convert [e a0] to [Debye]
 Dipole X            :         -0.0000000            0.0000000           -0.0000000
 Dipole Y            :         -0.0000000            0.0000000           -0.0000000
 Dipole Z            :          0.0000000            0.0000000            0.0000000
 Magnitude           :                                                    0.0000000

 ------------------------------------------------------------------------------------

Properties computed using the CI ROOT 74 density matrix


 Multipole Moments:

 ------------------------------------------------------------------------------------
     Multipole            Electronic (a.u.)      Nuclear  (a.u.)        Total (a.u.)
 ------------------------------------------------------------------------------------

 L = 1.  Multiply by 2.5417464519 to convert [e a0] to [Debye]
 Dipole X            :         -0.0000000            0.0000000           -0.0000000
 Dipole Y            :         -0.0000000            0.0000000           -0.0000000
 Dipole Z            :         -0.0000000            0.0000000           -0.0000000
 Magnitude           :                                                    0.0000000

 ------------------------------------------------------------------------------------

Properties computed using the CI ROOT 75 density matrix


 Multipole Moments:

 ------------------------------------------------------------------------------------
     Multipole            Electronic (a.u.)      Nuclear  (a.u.)        Total (a.u.)
 ------------------------------------------------------------------------------------

 L = 1.  Multiply by 2.5417464519 to convert [e a0] to [Debye]
 Dipole X            :         -0.0000000            0.0000000           -0.0000000
 Dipole Y            :         -0.0000000            0.0000000           -0.0000000
 Dipole Z            :          0.0000000            0.0000000            0.0000000
 Magnitude           :                                                    0.0000000

 ------------------------------------------------------------------------------------

Properties computed using the CI ROOT 76 density matrix


 Multipole Moments:

 ------------------------------------------------------------------------------------
     Multipole            Electronic (a.u.)      Nuclear  (a.u.)        Total (a.u.)
 ------------------------------------------------------------------------------------

 L = 1.  Multiply by 2.5417464519 to convert [e a0] to [Debye]
 Dipole X            :          0.0000000            0.0000000            0.0000000
 Dipole Y            :          0.0000000            0.0000000            0.0000000
 Dipole Z            :          0.0000000            0.0000000            0.0000000
 Magnitude           :                                                    0.0000000

 ------------------------------------------------------------------------------------

Properties computed using the CI ROOT 77 density matrix


 Multipole Moments:

 ------------------------------------------------------------------------------------
     Multipole            Electronic (a.u.)      Nuclear  (a.u.)        Total (a.u.)
 ------------------------------------------------------------------------------------

 L = 1.  Multiply by 2.5417464519 to convert [e a0] to [Debye]
 Dipole X            :          0.0000000            0.0000000            0.0000000
 Dipole Y            :          0.0000000            0.0000000            0.0000000
 Dipole Z            :          0.0000000            0.0000000            0.0000000
 Magnitude           :                                                    0.0000000

 ------------------------------------------------------------------------------------

Properties computed using the CI ROOT 78 density matrix


 Multipole Moments:

 ------------------------------------------------------------------------------------
     Multipole            Electronic (a.u.)      Nuclear  (a.u.)        Total (a.u.)
 ------------------------------------------------------------------------------------

 L = 1.  Multiply by 2.5417464519 to convert [e a0] to [Debye]
 Dipole X            :          0.0000000            0.0000000            0.0000000
 Dipole Y            :          0.0000000            0.0000000            0.0000000
 Dipole Z            :         -0.0000000            0.0000000           -0.0000000
 Magnitude           :                                                    0.0000000

 ------------------------------------------------------------------------------------

Properties computed using the CI ROOT 79 density matrix


 Multipole Moments:

 ------------------------------------------------------------------------------------
     Multipole            Electronic (a.u.)      Nuclear  (a.u.)        Total (a.u.)
 ------------------------------------------------------------------------------------

 L = 1.  Multiply by 2.5417464519 to convert [e a0] to [Debye]
 Dipole X            :          0.0000000            0.0000000            0.0000000
 Dipole Y            :         -0.0000000            0.0000000           -0.0000000
 Dipole Z            :         -0.0000000            0.0000000           -0.0000000
 Magnitude           :                                                    0.0000000

 ------------------------------------------------------------------------------------

Properties computed using the CI ROOT 80 density matrix


 Multipole Moments:

 ------------------------------------------------------------------------------------
     Multipole            Electronic (a.u.)      Nuclear  (a.u.)        Total (a.u.)
 ------------------------------------------------------------------------------------

 L = 1.  Multiply by 2.5417464519 to convert [e a0] to [Debye]
 Dipole X            :         -0.0000000            0.0000000           -0.0000000
 Dipole Y            :         -0.0000000            0.0000000           -0.0000000
 Dipole Z            :         -0.0000000            0.0000000           -0.0000000
 Magnitude           :                                                    0.0000000

 ------------------------------------------------------------------------------------

Properties computed using the CI ROOT 81 density matrix


 Multipole Moments:

 ------------------------------------------------------------------------------------
     Multipole            Electronic (a.u.)      Nuclear  (a.u.)        Total (a.u.)
 ------------------------------------------------------------------------------------

 L = 1.  Multiply by 2.5417464519 to convert [e a0] to [Debye]
 Dipole X            :          0.0000000            0.0000000            0.0000000
 Dipole Y            :          0.0000000            0.0000000            0.0000000
 Dipole Z            :         -0.0000000            0.0000000           -0.0000000
 Magnitude           :                                                    0.0000000

 ------------------------------------------------------------------------------------

Properties computed using the CI ROOT 82 density matrix


 Multipole Moments:

 ------------------------------------------------------------------------------------
     Multipole            Electronic (a.u.)      Nuclear  (a.u.)        Total (a.u.)
 ------------------------------------------------------------------------------------

 L = 1.  Multiply by 2.5417464519 to convert [e a0] to [Debye]
 Dipole X            :          0.0000000            0.0000000            0.0000000
 Dipole Y            :          0.0000000            0.0000000            0.0000000
 Dipole Z            :         -0.0000000            0.0000000           -0.0000000
 Magnitude           :                                                    0.0000000

 ------------------------------------------------------------------------------------

Properties computed using the CI ROOT 83 density matrix


 Multipole Moments:

 ------------------------------------------------------------------------------------
     Multipole            Electronic (a.u.)      Nuclear  (a.u.)        Total (a.u.)
 ------------------------------------------------------------------------------------

 L = 1.  Multiply by 2.5417464519 to convert [e a0] to [Debye]
 Dipole X            :         -0.0000000            0.0000000           -0.0000000
 Dipole Y            :         -0.0000000            0.0000000           -0.0000000
 Dipole Z            :         -0.0000000            0.0000000           -0.0000000
 Magnitude           :                                                    0.0000000

 ------------------------------------------------------------------------------------

Properties computed using the CI ROOT 84 density matrix


 Multipole Moments:

 ------------------------------------------------------------------------------------
     Multipole            Electronic (a.u.)      Nuclear  (a.u.)        Total (a.u.)
 ------------------------------------------------------------------------------------

 L = 1.  Multiply by 2.5417464519 to convert [e a0] to [Debye]
 Dipole X            :          0.0000000            0.0000000            0.0000000
 Dipole Y            :          0.0000000            0.0000000            0.0000000
 Dipole Z            :         -0.0000000            0.0000000           -0.0000000
 Magnitude           :                                                    0.0000000

 ------------------------------------------------------------------------------------

Properties computed using the CI ROOT 85 density matrix


 Multipole Moments:

 ------------------------------------------------------------------------------------
     Multipole            Electronic (a.u.)      Nuclear  (a.u.)        Total (a.u.)
 ------------------------------------------------------------------------------------

 L = 1.  Multiply by 2.5417464519 to convert [e a0] to [Debye]
 Dipole X            :         -0.0000000            0.0000000           -0.0000000
 Dipole Y            :          0.0000000            0.0000000            0.0000000
 Dipole Z            :          0.0000000            0.0000000            0.0000000
 Magnitude           :                                                    0.0000000

 ------------------------------------------------------------------------------------

Properties computed using the CI ROOT 86 density matrix


 Multipole Moments:

 ------------------------------------------------------------------------------------
     Multipole            Electronic (a.u.)      Nuclear  (a.u.)        Total (a.u.)
 ------------------------------------------------------------------------------------

 L = 1.  Multiply by 2.5417464519 to convert [e a0] to [Debye]
 Dipole X            :         -0.0000000            0.0000000           -0.0000000
 Dipole Y            :         -0.0000000            0.0000000           -0.0000000
 Dipole Z            :         -0.0000000            0.0000000           -0.0000000
 Magnitude           :                                                    0.0000000

 ------------------------------------------------------------------------------------

Properties computed using the CI ROOT 87 density matrix


 Multipole Moments:

 ------------------------------------------------------------------------------------
     Multipole            Electronic (a.u.)      Nuclear  (a.u.)        Total (a.u.)
 ------------------------------------------------------------------------------------

 L = 1.  Multiply by 2.5417464519 to convert [e a0] to [Debye]
 Dipole X            :         -0.0000000            0.0000000           -0.0000000
 Dipole Y            :         -0.0000000            0.0000000           -0.0000000
 Dipole Z            :         -0.0000000            0.0000000           -0.0000000
 Magnitude           :                                                    0.0000000

 ------------------------------------------------------------------------------------

Properties computed using the CI ROOT 88 density matrix


 Multipole Moments:

 ------------------------------------------------------------------------------------
     Multipole            Electronic (a.u.)      Nuclear  (a.u.)        Total (a.u.)
 ------------------------------------------------------------------------------------

 L = 1.  Multiply by 2.5417464519 to convert [e a0] to [Debye]
 Dipole X            :         -0.0000000            0.0000000           -0.0000000
 Dipole Y            :         -0.0000000            0.0000000           -0.0000000
 Dipole Z            :         -0.0000000            0.0000000           -0.0000000
 Magnitude           :                                                    0.0000000

 ------------------------------------------------------------------------------------

Properties computed using the CI ROOT 89 density matrix


 Multipole Moments:

 ------------------------------------------------------------------------------------
     Multipole            Electronic (a.u.)      Nuclear  (a.u.)        Total (a.u.)
 ------------------------------------------------------------------------------------

 L = 1.  Multiply by 2.5417464519 to convert [e a0] to [Debye]
 Dipole X            :          0.0000000            0.0000000            0.0000000
 Dipole Y            :         -0.0000000            0.0000000           -0.0000000
 Dipole Z            :          0.0000000            0.0000000            0.0000000
 Magnitude           :                                                    0.0000000

 ------------------------------------------------------------------------------------

Properties computed using the CI ROOT 90 density matrix


 Multipole Moments:

 ------------------------------------------------------------------------------------
     Multipole            Electronic (a.u.)      Nuclear  (a.u.)        Total (a.u.)
 ------------------------------------------------------------------------------------

 L = 1.  Multiply by 2.5417464519 to convert [e a0] to [Debye]
 Dipole X            :          0.0000000            0.0000000            0.0000000
 Dipole Y            :          0.0000000            0.0000000            0.0000000
 Dipole Z            :          0.0000000            0.0000000            0.0000000
 Magnitude           :                                                    0.0000000

 ------------------------------------------------------------------------------------

Properties computed using the CI ROOT 91 density matrix


 Multipole Moments:

 ------------------------------------------------------------------------------------
     Multipole            Electronic (a.u.)      Nuclear  (a.u.)        Total (a.u.)
 ------------------------------------------------------------------------------------

 L = 1.  Multiply by 2.5417464519 to convert [e a0] to [Debye]
 Dipole X            :          0.0000000            0.0000000            0.0000000
 Dipole Y            :          0.0000000            0.0000000            0.0000000
 Dipole Z            :          0.0000000            0.0000000            0.0000000
 Magnitude           :                                                    0.0000000

 ------------------------------------------------------------------------------------

Properties computed using the CI ROOT 92 density matrix


 Multipole Moments:

 ------------------------------------------------------------------------------------
     Multipole            Electronic (a.u.)      Nuclear  (a.u.)        Total (a.u.)
 ------------------------------------------------------------------------------------

 L = 1.  Multiply by 2.5417464519 to convert [e a0] to [Debye]
 Dipole X            :          0.0000000            0.0000000            0.0000000
 Dipole Y            :          0.0000000            0.0000000            0.0000000
 Dipole Z            :          0.0000000            0.0000000            0.0000000
 Magnitude           :                                                    0.0000000

 ------------------------------------------------------------------------------------

Properties computed using the CI ROOT 93 density matrix


 Multipole Moments:

 ------------------------------------------------------------------------------------
     Multipole            Electronic (a.u.)      Nuclear  (a.u.)        Total (a.u.)
 ------------------------------------------------------------------------------------

 L = 1.  Multiply by 2.5417464519 to convert [e a0] to [Debye]
 Dipole X            :          0.0000000            0.0000000            0.0000000
 Dipole Y            :          0.0000000            0.0000000            0.0000000
 Dipole Z            :          0.0000000            0.0000000            0.0000000
 Magnitude           :                                                    0.0000000

 ------------------------------------------------------------------------------------

Properties computed using the CI ROOT 94 density matrix


 Multipole Moments:

 ------------------------------------------------------------------------------------
     Multipole            Electronic (a.u.)      Nuclear  (a.u.)        Total (a.u.)
 ------------------------------------------------------------------------------------

 L = 1.  Multiply by 2.5417464519 to convert [e a0] to [Debye]
 Dipole X            :          0.0000000            0.0000000            0.0000000
 Dipole Y            :          0.0000000            0.0000000            0.0000000
 Dipole Z            :          0.0000000            0.0000000            0.0000000
 Magnitude           :                                                    0.0000000

 ------------------------------------------------------------------------------------

Properties computed using the CI ROOT 95 density matrix


 Multipole Moments:

 ------------------------------------------------------------------------------------
     Multipole            Electronic (a.u.)      Nuclear  (a.u.)        Total (a.u.)
 ------------------------------------------------------------------------------------

 L = 1.  Multiply by 2.5417464519 to convert [e a0] to [Debye]
 Dipole X            :          0.0000000            0.0000000            0.0000000
 Dipole Y            :          0.0000000            0.0000000            0.0000000
 Dipole Z            :          0.0000000            0.0000000            0.0000000
 Magnitude           :                                                    0.0000000

 ------------------------------------------------------------------------------------

Properties computed using the CI ROOT 96 density matrix


 Multipole Moments:

 ------------------------------------------------------------------------------------
     Multipole            Electronic (a.u.)      Nuclear  (a.u.)        Total (a.u.)
 ------------------------------------------------------------------------------------

 L = 1.  Multiply by 2.5417464519 to convert [e a0] to [Debye]
 Dipole X            :          0.0000000            0.0000000            0.0000000
 Dipole Y            :          0.0000000            0.0000000            0.0000000
 Dipole Z            :          0.0000000            0.0000000            0.0000000
 Magnitude           :                                                    0.0000000

 ------------------------------------------------------------------------------------

Properties computed using the CI ROOT 97 density matrix


 Multipole Moments:

 ------------------------------------------------------------------------------------
     Multipole            Electronic (a.u.)      Nuclear  (a.u.)        Total (a.u.)
 ------------------------------------------------------------------------------------

 L = 1.  Multiply by 2.5417464519 to convert [e a0] to [Debye]
 Dipole X            :          0.0000000            0.0000000            0.0000000
 Dipole Y            :          0.0000000            0.0000000            0.0000000
 Dipole Z            :          0.0000000            0.0000000            0.0000000
 Magnitude           :                                                    0.0000000

 ------------------------------------------------------------------------------------

Properties computed using the CI ROOT 98 density matrix


 Multipole Moments:

 ------------------------------------------------------------------------------------
     Multipole            Electronic (a.u.)      Nuclear  (a.u.)        Total (a.u.)
 ------------------------------------------------------------------------------------

 L = 1.  Multiply by 2.5417464519 to convert [e a0] to [Debye]
 Dipole X            :          0.0000000            0.0000000            0.0000000
 Dipole Y            :          0.0000000            0.0000000            0.0000000
 Dipole Z            :          0.0000000            0.0000000            0.0000000
 Magnitude           :                                                    0.0000000

 ------------------------------------------------------------------------------------

Properties computed using the CI ROOT 99 density matrix


 Multipole Moments:

 ------------------------------------------------------------------------------------
     Multipole            Electronic (a.u.)      Nuclear  (a.u.)        Total (a.u.)
 ------------------------------------------------------------------------------------

 L = 1.  Multiply by 2.5417464519 to convert [e a0] to [Debye]
 Dipole X            :          0.0000000            0.0000000            0.0000000
 Dipole Y            :          0.0000000            0.0000000            0.0000000
 Dipole Z            :          0.0000000            0.0000000            0.0000000
 Magnitude           :                                                    0.0000000

 ------------------------------------------------------------------------------------

   ===> CI properties for all CI transition density matrices <=== 


Properties computed using the CI ROOT 0 -> ROOT 1 density matrix


Transition Multipole Moments:

 ------------------------------------------------------------------------------------
     Multipole            Electronic (a.u.)      Nuclear  (a.u.)        Total (a.u.)
 ------------------------------------------------------------------------------------

 L = 1.  Multiply by 2.5417464519 to convert [e a0] to [Debye]
 Dipole X            :         -0.0000000            0.0000000           -0.0000000
 Dipole Y            :         -0.0000000            0.0000000           -0.0000000
 Dipole Z            :         -1.5502103            0.0000000           -1.5502103
 Magnitude           :                                                    1.5502103

 ------------------------------------------------------------------------------------

Properties computed using the CI ROOT 0 -> ROOT 2 density matrix


Transition Multipole Moments:

 ------------------------------------------------------------------------------------
     Multipole            Electronic (a.u.)      Nuclear  (a.u.)        Total (a.u.)
 ------------------------------------------------------------------------------------

 L = 1.  Multiply by 2.5417464519 to convert [e a0] to [Debye]
 Dipole X            :         -0.0000000            0.0000000           -0.0000000
 Dipole Y            :         -0.0000000            0.0000000           -0.0000000
 Dipole Z            :         -1.2979902            0.0000000           -1.2979902
 Magnitude           :                                                    1.2979902

 ------------------------------------------------------------------------------------

Properties computed using the CI ROOT 0 -> ROOT 3 density matrix


Transition Multipole Moments:

 ------------------------------------------------------------------------------------
     Multipole            Electronic (a.u.)      Nuclear  (a.u.)        Total (a.u.)
 ------------------------------------------------------------------------------------

 L = 1.  Multiply by 2.5417464519 to convert [e a0] to [Debye]
 Dipole X            :         -0.0000000            0.0000000           -0.0000000
 Dipole Y            :          0.0000000            0.0000000            0.0000000
 Dipole Z            :          0.0000000            0.0000000            0.0000000
 Magnitude           :                                                    0.0000000

 ------------------------------------------------------------------------------------

Properties computed using the CI ROOT 0 -> ROOT 4 density matrix


Transition Multipole Moments:

 ------------------------------------------------------------------------------------
     Multipole            Electronic (a.u.)      Nuclear  (a.u.)        Total (a.u.)
 ------------------------------------------------------------------------------------

 L = 1.  Multiply by 2.5417464519 to convert [e a0] to [Debye]
 Dipole X            :          0.0000000            0.0000000            0.0000000
 Dipole Y            :         -0.0000000            0.0000000           -0.0000000
 Dipole Z            :         -0.0000000            0.0000000           -0.0000000
 Magnitude           :                                                    0.0000000

 ------------------------------------------------------------------------------------

Properties computed using the CI ROOT 0 -> ROOT 5 density matrix


Transition Multipole Moments:

 ------------------------------------------------------------------------------------
     Multipole            Electronic (a.u.)      Nuclear  (a.u.)        Total (a.u.)
 ------------------------------------------------------------------------------------

 L = 1.  Multiply by 2.5417464519 to convert [e a0] to [Debye]
 Dipole X            :          0.0000000            0.0000000            0.0000000
 Dipole Y            :          0.0000000            0.0000000            0.0000000
 Dipole Z            :          0.0000000            0.0000000            0.0000000
 Magnitude           :                                                    0.0000000

 ------------------------------------------------------------------------------------

Properties computed using the CI ROOT 0 -> ROOT 6 density matrix


Transition Multipole Moments:

 ------------------------------------------------------------------------------------
     Multipole            Electronic (a.u.)      Nuclear  (a.u.)        Total (a.u.)
 ------------------------------------------------------------------------------------

 L = 1.  Multiply by 2.5417464519 to convert [e a0] to [Debye]
 Dipole X            :         -0.0000000            0.0000000           -0.0000000
 Dipole Y            :          0.0000000            0.0000000            0.0000000
 Dipole Z            :          0.1358477            0.0000000            0.1358477
 Magnitude           :                                                    0.1358477

 ------------------------------------------------------------------------------------

Properties computed using the CI ROOT 0 -> ROOT 7 density matrix


Transition Multipole Moments:

 ------------------------------------------------------------------------------------
     Multipole            Electronic (a.u.)      Nuclear  (a.u.)        Total (a.u.)
 ------------------------------------------------------------------------------------

 L = 1.  Multiply by 2.5417464519 to convert [e a0] to [Debye]
 Dipole X            :          0.0000000            0.0000000            0.0000000
 Dipole Y            :         -0.0000000            0.0000000           -0.0000000
 Dipole Z            :         -0.2212595            0.0000000           -0.2212595
 Magnitude           :                                                    0.2212595

 ------------------------------------------------------------------------------------

Properties computed using the CI ROOT 0 -> ROOT 8 density matrix


Transition Multipole Moments:

 ------------------------------------------------------------------------------------
     Multipole            Electronic (a.u.)      Nuclear  (a.u.)        Total (a.u.)
 ------------------------------------------------------------------------------------

 L = 1.  Multiply by 2.5417464519 to convert [e a0] to [Debye]
 Dipole X            :          0.0000000            0.0000000            0.0000000
 Dipole Y            :          0.0000000            0.0000000            0.0000000
 Dipole Z            :         -0.1016195            0.0000000           -0.1016195
 Magnitude           :                                                    0.1016195

 ------------------------------------------------------------------------------------

Properties computed using the CI ROOT 0 -> ROOT 9 density matrix


Transition Multipole Moments:

 ------------------------------------------------------------------------------------
     Multipole            Electronic (a.u.)      Nuclear  (a.u.)        Total (a.u.)
 ------------------------------------------------------------------------------------

 L = 1.  Multiply by 2.5417464519 to convert [e a0] to [Debye]
 Dipole X            :          0.0000000            0.0000000            0.0000000
 Dipole Y            :         -0.0000000            0.0000000           -0.0000000
 Dipole Z            :         -0.1294831            0.0000000           -0.1294831
 Magnitude           :                                                    0.1294831

 ------------------------------------------------------------------------------------

Properties computed using the CI ROOT 0 -> ROOT 10 density matrix


Transition Multipole Moments:

 ------------------------------------------------------------------------------------
     Multipole            Electronic (a.u.)      Nuclear  (a.u.)        Total (a.u.)
 ------------------------------------------------------------------------------------

 L = 1.  Multiply by 2.5417464519 to convert [e a0] to [Debye]
 Dipole X            :         -0.0000000            0.0000000           -0.0000000
 Dipole Y            :         -0.0000000            0.0000000           -0.0000000
 Dipole Z            :         -0.0000000            0.0000000           -0.0000000
 Magnitude           :                                                    0.0000000

 ------------------------------------------------------------------------------------

Properties computed using the CI ROOT 0 -> ROOT 11 density matrix


Transition Multipole Moments:

 ------------------------------------------------------------------------------------
     Multipole            Electronic (a.u.)      Nuclear  (a.u.)        Total (a.u.)
 ------------------------------------------------------------------------------------

 L = 1.  Multiply by 2.5417464519 to convert [e a0] to [Debye]
 Dipole X            :         -0.7147797            0.0000000           -0.7147797
 Dipole Y            :          0.3870270            0.0000000            0.3870270
 Dipole Z            :         -0.0000000            0.0000000           -0.0000000
 Magnitude           :                                                    0.8128345

 ------------------------------------------------------------------------------------

Properties computed using the CI ROOT 0 -> ROOT 12 density matrix


Transition Multipole Moments:

 ------------------------------------------------------------------------------------
     Multipole            Electronic (a.u.)      Nuclear  (a.u.)        Total (a.u.)
 ------------------------------------------------------------------------------------

 L = 1.  Multiply by 2.5417464519 to convert [e a0] to [Debye]
 Dipole X            :         -0.3870270            0.0000000           -0.3870270
 Dipole Y            :         -0.7147797            0.0000000           -0.7147797
 Dipole Z            :          0.0000000            0.0000000            0.0000000
 Magnitude           :                                                    0.8128345

 ------------------------------------------------------------------------------------

Properties computed using the CI ROOT 0 -> ROOT 13 density matrix


Transition Multipole Moments:

 ------------------------------------------------------------------------------------
     Multipole            Electronic (a.u.)      Nuclear  (a.u.)        Total (a.u.)
 ------------------------------------------------------------------------------------

 L = 1.  Multiply by 2.5417464519 to convert [e a0] to [Debye]
 Dipole X            :         -0.0000000            0.0000000           -0.0000000
 Dipole Y            :         -0.0000000            0.0000000           -0.0000000
 Dipole Z            :          0.0000000            0.0000000            0.0000000
 Magnitude           :                                                    0.0000000

 ------------------------------------------------------------------------------------

Properties computed using the CI ROOT 0 -> ROOT 14 density matrix


Transition Multipole Moments:

 ------------------------------------------------------------------------------------
     Multipole            Electronic (a.u.)      Nuclear  (a.u.)        Total (a.u.)
 ------------------------------------------------------------------------------------

 L = 1.  Multiply by 2.5417464519 to convert [e a0] to [Debye]
 Dipole X            :         -0.0000000            0.0000000           -0.0000000
 Dipole Y            :         -0.0000000            0.0000000           -0.0000000
 Dipole Z            :          0.0000000            0.0000000            0.0000000
 Magnitude           :                                                    0.0000000

 ------------------------------------------------------------------------------------

Properties computed using the CI ROOT 0 -> ROOT 15 density matrix


Transition Multipole Moments:

 ------------------------------------------------------------------------------------
     Multipole            Electronic (a.u.)      Nuclear  (a.u.)        Total (a.u.)
 ------------------------------------------------------------------------------------

 L = 1.  Multiply by 2.5417464519 to convert [e a0] to [Debye]
 Dipole X            :         -0.3218914            0.0000000           -0.3218914
 Dipole Y            :         -0.6970326            0.0000000           -0.6970326
 Dipole Z            :          0.0000000            0.0000000            0.0000000
 Magnitude           :                                                    0.7677686

 ------------------------------------------------------------------------------------

Properties computed using the CI ROOT 0 -> ROOT 16 density matrix


Transition Multipole Moments:

 ------------------------------------------------------------------------------------
     Multipole            Electronic (a.u.)      Nuclear  (a.u.)        Total (a.u.)
 ------------------------------------------------------------------------------------

 L = 1.  Multiply by 2.5417464519 to convert [e a0] to [Debye]
 Dipole X            :          0.6970326            0.0000000            0.6970326
 Dipole Y            :         -0.3218914            0.0000000           -0.3218914
 Dipole Z            :          0.0000000            0.0000000            0.0000000
 Magnitude           :                                                    0.7677686

 ------------------------------------------------------------------------------------

Properties computed using the CI ROOT 0 -> ROOT 17 density matrix


Transition Multipole Moments:

 ------------------------------------------------------------------------------------
     Multipole            Electronic (a.u.)      Nuclear  (a.u.)        Total (a.u.)
 ------------------------------------------------------------------------------------

 L = 1.  Multiply by 2.5417464519 to convert [e a0] to [Debye]
 Dipole X            :         -0.0000000            0.0000000           -0.0000000
 Dipole Y            :          0.0000000            0.0000000            0.0000000
 Dipole Z            :         -0.0426115            0.0000000           -0.0426115
 Magnitude           :                                                    0.0426115

 ------------------------------------------------------------------------------------

Properties computed using the CI ROOT 0 -> ROOT 18 density matrix


Transition Multipole Moments:

 ------------------------------------------------------------------------------------
     Multipole            Electronic (a.u.)      Nuclear  (a.u.)        Total (a.u.)
 ------------------------------------------------------------------------------------

 L = 1.  Multiply by 2.5417464519 to convert [e a0] to [Debye]
 Dipole X            :         -0.0000000            0.0000000           -0.0000000
 Dipole Y            :         -0.0000000            0.0000000           -0.0000000
 Dipole Z            :         -0.0000000            0.0000000           -0.0000000
 Magnitude           :                                                    0.0000000

 ------------------------------------------------------------------------------------

Properties computed using the CI ROOT 0 -> ROOT 19 density matrix


Transition Multipole Moments:

 ------------------------------------------------------------------------------------
     Multipole            Electronic (a.u.)      Nuclear  (a.u.)        Total (a.u.)
 ------------------------------------------------------------------------------------

 L = 1.  Multiply by 2.5417464519 to convert [e a0] to [Debye]
 Dipole X            :          0.0000000            0.0000000            0.0000000
 Dipole Y            :          0.0000000            0.0000000            0.0000000
 Dipole Z            :          0.0000000            0.0000000            0.0000000
 Magnitude           :                                                    0.0000000

 ------------------------------------------------------------------------------------

Properties computed using the CI ROOT 0 -> ROOT 20 density matrix


Transition Multipole Moments:

 ------------------------------------------------------------------------------------
     Multipole            Electronic (a.u.)      Nuclear  (a.u.)        Total (a.u.)
 ------------------------------------------------------------------------------------

 L = 1.  Multiply by 2.5417464519 to convert [e a0] to [Debye]
 Dipole X            :          0.0000000            0.0000000            0.0000000
 Dipole Y            :          0.0000000            0.0000000            0.0000000
 Dipole Z            :          0.0000000            0.0000000            0.0000000
 Magnitude           :                                                    0.0000000

 ------------------------------------------------------------------------------------

Properties computed using the CI ROOT 0 -> ROOT 21 density matrix


Transition Multipole Moments:

 ------------------------------------------------------------------------------------
     Multipole            Electronic (a.u.)      Nuclear  (a.u.)        Total (a.u.)
 ------------------------------------------------------------------------------------

 L = 1.  Multiply by 2.5417464519 to convert [e a0] to [Debye]
 Dipole X            :          0.0000000            0.0000000            0.0000000
 Dipole Y            :         -0.0000000            0.0000000           -0.0000000
 Dipole Z            :          0.0000000            0.0000000            0.0000000
 Magnitude           :                                                    0.0000000

 ------------------------------------------------------------------------------------

Properties computed using the CI ROOT 0 -> ROOT 22 density matrix


Transition Multipole Moments:

 ------------------------------------------------------------------------------------
     Multipole            Electronic (a.u.)      Nuclear  (a.u.)        Total (a.u.)
 ------------------------------------------------------------------------------------

 L = 1.  Multiply by 2.5417464519 to convert [e a0] to [Debye]
 Dipole X            :         -0.0000000            0.0000000           -0.0000000
 Dipole Y            :          0.0000000            0.0000000            0.0000000
 Dipole Z            :          0.0254578            0.0000000            0.0254578
 Magnitude           :                                                    0.0254578

 ------------------------------------------------------------------------------------

Properties computed using the CI ROOT 0 -> ROOT 23 density matrix


Transition Multipole Moments:

 ------------------------------------------------------------------------------------
     Multipole            Electronic (a.u.)      Nuclear  (a.u.)        Total (a.u.)
 ------------------------------------------------------------------------------------

 L = 1.  Multiply by 2.5417464519 to convert [e a0] to [Debye]
 Dipole X            :         -0.0000000            0.0000000           -0.0000000
 Dipole Y            :         -0.0000000            0.0000000           -0.0000000
 Dipole Z            :         -0.0000000            0.0000000           -0.0000000
 Magnitude           :                                                    0.0000000

 ------------------------------------------------------------------------------------

Properties computed using the CI ROOT 0 -> ROOT 24 density matrix


Transition Multipole Moments:

 ------------------------------------------------------------------------------------
     Multipole            Electronic (a.u.)      Nuclear  (a.u.)        Total (a.u.)
 ------------------------------------------------------------------------------------

 L = 1.  Multiply by 2.5417464519 to convert [e a0] to [Debye]
 Dipole X            :          0.0000000            0.0000000            0.0000000
 Dipole Y            :          0.0000000            0.0000000            0.0000000
 Dipole Z            :          0.0000000            0.0000000            0.0000000
 Magnitude           :                                                    0.0000000

 ------------------------------------------------------------------------------------

Properties computed using the CI ROOT 0 -> ROOT 25 density matrix


Transition Multipole Moments:

 ------------------------------------------------------------------------------------
     Multipole            Electronic (a.u.)      Nuclear  (a.u.)        Total (a.u.)
 ------------------------------------------------------------------------------------

 L = 1.  Multiply by 2.5417464519 to convert [e a0] to [Debye]
 Dipole X            :          0.0002817            0.0000000            0.0002817
 Dipole Y            :         -0.0212951            0.0000000           -0.0212951
 Dipole Z            :         -0.0000000            0.0000000           -0.0000000
 Magnitude           :                                                    0.0212970

 ------------------------------------------------------------------------------------

Properties computed using the CI ROOT 0 -> ROOT 26 density matrix


Transition Multipole Moments:

 ------------------------------------------------------------------------------------
     Multipole            Electronic (a.u.)      Nuclear  (a.u.)        Total (a.u.)
 ------------------------------------------------------------------------------------

 L = 1.  Multiply by 2.5417464519 to convert [e a0] to [Debye]
 Dipole X            :         -0.0212951            0.0000000           -0.0212951
 Dipole Y            :         -0.0002817            0.0000000           -0.0002817
 Dipole Z            :         -0.0000000            0.0000000           -0.0000000
 Magnitude           :                                                    0.0212970

 ------------------------------------------------------------------------------------

Properties computed using the CI ROOT 0 -> ROOT 27 density matrix


Transition Multipole Moments:

 ------------------------------------------------------------------------------------
     Multipole            Electronic (a.u.)      Nuclear  (a.u.)        Total (a.u.)
 ------------------------------------------------------------------------------------

 L = 1.  Multiply by 2.5417464519 to convert [e a0] to [Debye]
 Dipole X            :         -0.0000000            0.0000000           -0.0000000
 Dipole Y            :          0.0000000            0.0000000            0.0000000
 Dipole Z            :         -0.0000000            0.0000000           -0.0000000
 Magnitude           :                                                    0.0000000

 ------------------------------------------------------------------------------------

Properties computed using the CI ROOT 0 -> ROOT 28 density matrix


Transition Multipole Moments:

 ------------------------------------------------------------------------------------
     Multipole            Electronic (a.u.)      Nuclear  (a.u.)        Total (a.u.)
 ------------------------------------------------------------------------------------

 L = 1.  Multiply by 2.5417464519 to convert [e a0] to [Debye]
 Dipole X            :          0.0000000            0.0000000            0.0000000
 Dipole Y            :          0.0000000            0.0000000            0.0000000
 Dipole Z            :          0.0000000            0.0000000            0.0000000
 Magnitude           :                                                    0.0000000

 ------------------------------------------------------------------------------------

Properties computed using the CI ROOT 0 -> ROOT 29 density matrix


Transition Multipole Moments:

 ------------------------------------------------------------------------------------
     Multipole            Electronic (a.u.)      Nuclear  (a.u.)        Total (a.u.)
 ------------------------------------------------------------------------------------

 L = 1.  Multiply by 2.5417464519 to convert [e a0] to [Debye]
 Dipole X            :          0.0094030            0.0000000            0.0094030
 Dipole Y            :          0.0481307            0.0000000            0.0481307
 Dipole Z            :         -0.0000000            0.0000000           -0.0000000
 Magnitude           :                                                    0.0490406

 ------------------------------------------------------------------------------------

Properties computed using the CI ROOT 0 -> ROOT 30 density matrix


Transition Multipole Moments:

 ------------------------------------------------------------------------------------
     Multipole            Electronic (a.u.)      Nuclear  (a.u.)        Total (a.u.)
 ------------------------------------------------------------------------------------

 L = 1.  Multiply by 2.5417464519 to convert [e a0] to [Debye]
 Dipole X            :         -0.0481307            0.0000000           -0.0481307
 Dipole Y            :          0.0094030            0.0000000            0.0094030
 Dipole Z            :         -0.0000000            0.0000000           -0.0000000
 Magnitude           :                                                    0.0490406

 ------------------------------------------------------------------------------------

Properties computed using the CI ROOT 0 -> ROOT 31 density matrix


Transition Multipole Moments:

 ------------------------------------------------------------------------------------
     Multipole            Electronic (a.u.)      Nuclear  (a.u.)        Total (a.u.)
 ------------------------------------------------------------------------------------

 L = 1.  Multiply by 2.5417464519 to convert [e a0] to [Debye]
 Dipole X            :         -0.0000000            0.0000000           -0.0000000
 Dipole Y            :          0.0000000            0.0000000            0.0000000
 Dipole Z            :          0.0000000            0.0000000            0.0000000
 Magnitude           :                                                    0.0000000

 ------------------------------------------------------------------------------------

Properties computed using the CI ROOT 0 -> ROOT 32 density matrix


Transition Multipole Moments:

 ------------------------------------------------------------------------------------
     Multipole            Electronic (a.u.)      Nuclear  (a.u.)        Total (a.u.)
 ------------------------------------------------------------------------------------

 L = 1.  Multiply by 2.5417464519 to convert [e a0] to [Debye]
 Dipole X            :          0.0000000            0.0000000            0.0000000
 Dipole Y            :         -0.0000000            0.0000000           -0.0000000
 Dipole Z            :         -0.0000000            0.0000000           -0.0000000
 Magnitude           :                                                    0.0000000

 ------------------------------------------------------------------------------------

Properties computed using the CI ROOT 0 -> ROOT 33 density matrix


Transition Multipole Moments:

 ------------------------------------------------------------------------------------
     Multipole            Electronic (a.u.)      Nuclear  (a.u.)        Total (a.u.)
 ------------------------------------------------------------------------------------

 L = 1.  Multiply by 2.5417464519 to convert [e a0] to [Debye]
 Dipole X            :         -0.0000000            0.0000000           -0.0000000
 Dipole Y            :         -0.0000000            0.0000000           -0.0000000
 Dipole Z            :          0.0000000            0.0000000            0.0000000
 Magnitude           :                                                    0.0000000

 ------------------------------------------------------------------------------------

Properties computed using the CI ROOT 0 -> ROOT 34 density matrix


Transition Multipole Moments:

 ------------------------------------------------------------------------------------
     Multipole            Electronic (a.u.)      Nuclear  (a.u.)        Total (a.u.)
 ------------------------------------------------------------------------------------

 L = 1.  Multiply by 2.5417464519 to convert [e a0] to [Debye]
 Dipole X            :          0.0000000            0.0000000            0.0000000
 Dipole Y            :         -0.0000000            0.0000000           -0.0000000
 Dipole Z            :         -0.0574110            0.0000000           -0.0574110
 Magnitude           :                                                    0.0574110

 ------------------------------------------------------------------------------------

Properties computed using the CI ROOT 0 -> ROOT 35 density matrix


Transition Multipole Moments:

 ------------------------------------------------------------------------------------
     Multipole            Electronic (a.u.)      Nuclear  (a.u.)        Total (a.u.)
 ------------------------------------------------------------------------------------

 L = 1.  Multiply by 2.5417464519 to convert [e a0] to [Debye]
 Dipole X            :         -0.0000000            0.0000000           -0.0000000
 Dipole Y            :          0.0000000            0.0000000            0.0000000
 Dipole Z            :         -0.0262609            0.0000000           -0.0262609
 Magnitude           :                                                    0.0262609

 ------------------------------------------------------------------------------------

Properties computed using the CI ROOT 0 -> ROOT 36 density matrix


Transition Multipole Moments:

 ------------------------------------------------------------------------------------
     Multipole            Electronic (a.u.)      Nuclear  (a.u.)        Total (a.u.)
 ------------------------------------------------------------------------------------

 L = 1.  Multiply by 2.5417464519 to convert [e a0] to [Debye]
 Dipole X            :          0.0000000            0.0000000            0.0000000
 Dipole Y            :         -0.0000000            0.0000000           -0.0000000
 Dipole Z            :          0.0000000            0.0000000            0.0000000
 Magnitude           :                                                    0.0000000

 ------------------------------------------------------------------------------------

Properties computed using the CI ROOT 0 -> ROOT 37 density matrix


Transition Multipole Moments:

 ------------------------------------------------------------------------------------
     Multipole            Electronic (a.u.)      Nuclear  (a.u.)        Total (a.u.)
 ------------------------------------------------------------------------------------

 L = 1.  Multiply by 2.5417464519 to convert [e a0] to [Debye]
 Dipole X            :         -0.0000000            0.0000000           -0.0000000
 Dipole Y            :          0.0000000            0.0000000            0.0000000
 Dipole Z            :         -0.0000000            0.0000000           -0.0000000
 Magnitude           :                                                    0.0000000

 ------------------------------------------------------------------------------------

Properties computed using the CI ROOT 0 -> ROOT 38 density matrix


Transition Multipole Moments:

 ------------------------------------------------------------------------------------
     Multipole            Electronic (a.u.)      Nuclear  (a.u.)        Total (a.u.)
 ------------------------------------------------------------------------------------

 L = 1.  Multiply by 2.5417464519 to convert [e a0] to [Debye]
 Dipole X            :          0.0059467            0.0000000            0.0059467
 Dipole Y            :          0.0153640            0.0000000            0.0153640
 Dipole Z            :         -0.0000000            0.0000000           -0.0000000
 Magnitude           :                                                    0.0164747

 ------------------------------------------------------------------------------------

Properties computed using the CI ROOT 0 -> ROOT 39 density matrix


Transition Multipole Moments:

 ------------------------------------------------------------------------------------
     Multipole            Electronic (a.u.)      Nuclear  (a.u.)        Total (a.u.)
 ------------------------------------------------------------------------------------

 L = 1.  Multiply by 2.5417464519 to convert [e a0] to [Debye]
 Dipole X            :          0.0153640            0.0000000            0.0153640
 Dipole Y            :         -0.0059467            0.0000000           -0.0059467
 Dipole Z            :          0.0000000            0.0000000            0.0000000
 Magnitude           :                                                    0.0164747

 ------------------------------------------------------------------------------------

Properties computed using the CI ROOT 0 -> ROOT 40 density matrix


Transition Multipole Moments:

 ------------------------------------------------------------------------------------
     Multipole            Electronic (a.u.)      Nuclear  (a.u.)        Total (a.u.)
 ------------------------------------------------------------------------------------

 L = 1.  Multiply by 2.5417464519 to convert [e a0] to [Debye]
 Dipole X            :         -0.0000000            0.0000000           -0.0000000
 Dipole Y            :         -0.0000000            0.0000000           -0.0000000
 Dipole Z            :         -0.0000000            0.0000000           -0.0000000
 Magnitude           :                                                    0.0000000

 ------------------------------------------------------------------------------------

Properties computed using the CI ROOT 0 -> ROOT 41 density matrix


Transition Multipole Moments:

 ------------------------------------------------------------------------------------
     Multipole            Electronic (a.u.)      Nuclear  (a.u.)        Total (a.u.)
 ------------------------------------------------------------------------------------

 L = 1.  Multiply by 2.5417464519 to convert [e a0] to [Debye]
 Dipole X            :          0.0000000            0.0000000            0.0000000
 Dipole Y            :         -0.0000000            0.0000000           -0.0000000
 Dipole Z            :          0.0000000            0.0000000            0.0000000
 Magnitude           :                                                    0.0000000

 ------------------------------------------------------------------------------------

Properties computed using the CI ROOT 0 -> ROOT 42 density matrix


Transition Multipole Moments:

 ------------------------------------------------------------------------------------
     Multipole            Electronic (a.u.)      Nuclear  (a.u.)        Total (a.u.)
 ------------------------------------------------------------------------------------

 L = 1.  Multiply by 2.5417464519 to convert [e a0] to [Debye]
 Dipole X            :         -0.0062068            0.0000000           -0.0062068
 Dipole Y            :         -0.0164604            0.0000000           -0.0164604
 Dipole Z            :          0.0000000            0.0000000            0.0000000
 Magnitude           :                                                    0.0175917

 ------------------------------------------------------------------------------------

Properties computed using the CI ROOT 0 -> ROOT 43 density matrix


Transition Multipole Moments:

 ------------------------------------------------------------------------------------
     Multipole            Electronic (a.u.)      Nuclear  (a.u.)        Total (a.u.)
 ------------------------------------------------------------------------------------

 L = 1.  Multiply by 2.5417464519 to convert [e a0] to [Debye]
 Dipole X            :         -0.0164604            0.0000000           -0.0164604
 Dipole Y            :          0.0062068            0.0000000            0.0062068
 Dipole Z            :         -0.0000000            0.0000000           -0.0000000
 Magnitude           :                                                    0.0175917

 ------------------------------------------------------------------------------------

Properties computed using the CI ROOT 0 -> ROOT 44 density matrix


Transition Multipole Moments:

 ------------------------------------------------------------------------------------
     Multipole            Electronic (a.u.)      Nuclear  (a.u.)        Total (a.u.)
 ------------------------------------------------------------------------------------

 L = 1.  Multiply by 2.5417464519 to convert [e a0] to [Debye]
 Dipole X            :          0.0000000            0.0000000            0.0000000
 Dipole Y            :         -0.0000000            0.0000000           -0.0000000
 Dipole Z            :         -0.0000000            0.0000000           -0.0000000
 Magnitude           :                                                    0.0000000

 ------------------------------------------------------------------------------------

Properties computed using the CI ROOT 0 -> ROOT 45 density matrix


Transition Multipole Moments:

 ------------------------------------------------------------------------------------
     Multipole            Electronic (a.u.)      Nuclear  (a.u.)        Total (a.u.)
 ------------------------------------------------------------------------------------

 L = 1.  Multiply by 2.5417464519 to convert [e a0] to [Debye]
 Dipole X            :          0.0000000            0.0000000            0.0000000
 Dipole Y            :          0.0000000            0.0000000            0.0000000
 Dipole Z            :         -0.0000000            0.0000000           -0.0000000
 Magnitude           :                                                    0.0000000

 ------------------------------------------------------------------------------------

Properties computed using the CI ROOT 0 -> ROOT 46 density matrix


Transition Multipole Moments:

 ------------------------------------------------------------------------------------
     Multipole            Electronic (a.u.)      Nuclear  (a.u.)        Total (a.u.)
 ------------------------------------------------------------------------------------

 L = 1.  Multiply by 2.5417464519 to convert [e a0] to [Debye]
 Dipole X            :          0.0000000            0.0000000            0.0000000
 Dipole Y            :          0.0000000            0.0000000            0.0000000
 Dipole Z            :          0.0000000            0.0000000            0.0000000
 Magnitude           :                                                    0.0000000

 ------------------------------------------------------------------------------------

Properties computed using the CI ROOT 0 -> ROOT 47 density matrix


Transition Multipole Moments:

 ------------------------------------------------------------------------------------
     Multipole            Electronic (a.u.)      Nuclear  (a.u.)        Total (a.u.)
 ------------------------------------------------------------------------------------

 L = 1.  Multiply by 2.5417464519 to convert [e a0] to [Debye]
 Dipole X            :         -0.0000000            0.0000000           -0.0000000
 Dipole Y            :         -0.0000000            0.0000000           -0.0000000
 Dipole Z            :         -0.0000000            0.0000000           -0.0000000
 Magnitude           :                                                    0.0000000

 ------------------------------------------------------------------------------------

Properties computed using the CI ROOT 0 -> ROOT 48 density matrix


Transition Multipole Moments:

 ------------------------------------------------------------------------------------
     Multipole            Electronic (a.u.)      Nuclear  (a.u.)        Total (a.u.)
 ------------------------------------------------------------------------------------

 L = 1.  Multiply by 2.5417464519 to convert [e a0] to [Debye]
 Dipole X            :          0.0000000            0.0000000            0.0000000
 Dipole Y            :          0.0000000            0.0000000            0.0000000
 Dipole Z            :          0.0000000            0.0000000            0.0000000
 Magnitude           :                                                    0.0000000

 ------------------------------------------------------------------------------------

Properties computed using the CI ROOT 0 -> ROOT 49 density matrix


Transition Multipole Moments:

 ------------------------------------------------------------------------------------
     Multipole            Electronic (a.u.)      Nuclear  (a.u.)        Total (a.u.)
 ------------------------------------------------------------------------------------

 L = 1.  Multiply by 2.5417464519 to convert [e a0] to [Debye]
 Dipole X            :          0.0000000            0.0000000            0.0000000
 Dipole Y            :         -0.0000000            0.0000000           -0.0000000
 Dipole Z            :         -0.0000000            0.0000000           -0.0000000
 Magnitude           :                                                    0.0000000

 ------------------------------------------------------------------------------------

Properties computed using the CI ROOT 0 -> ROOT 50 density matrix


Transition Multipole Moments:

 ------------------------------------------------------------------------------------
     Multipole            Electronic (a.u.)      Nuclear  (a.u.)        Total (a.u.)
 ------------------------------------------------------------------------------------

 L = 1.  Multiply by 2.5417464519 to convert [e a0] to [Debye]
 Dipole X            :          0.0000000            0.0000000            0.0000000
 Dipole Y            :         -0.0000000            0.0000000           -0.0000000
 Dipole Z            :          0.0000000            0.0000000            0.0000000
 Magnitude           :                                                    0.0000000

 ------------------------------------------------------------------------------------

Properties computed using the CI ROOT 0 -> ROOT 51 density matrix


Transition Multipole Moments:

 ------------------------------------------------------------------------------------
     Multipole            Electronic (a.u.)      Nuclear  (a.u.)        Total (a.u.)
 ------------------------------------------------------------------------------------

 L = 1.  Multiply by 2.5417464519 to convert [e a0] to [Debye]
 Dipole X            :         -0.0000000            0.0000000           -0.0000000
 Dipole Y            :          0.0000000            0.0000000            0.0000000
 Dipole Z            :         -0.0000000            0.0000000           -0.0000000
 Magnitude           :                                                    0.0000000

 ------------------------------------------------------------------------------------

Properties computed using the CI ROOT 0 -> ROOT 52 density matrix


Transition Multipole Moments:

 ------------------------------------------------------------------------------------
     Multipole            Electronic (a.u.)      Nuclear  (a.u.)        Total (a.u.)
 ------------------------------------------------------------------------------------

 L = 1.  Multiply by 2.5417464519 to convert [e a0] to [Debye]
 Dipole X            :         -0.0000000            0.0000000           -0.0000000
 Dipole Y            :          0.0000000            0.0000000            0.0000000
 Dipole Z            :          0.0000000            0.0000000            0.0000000
 Magnitude           :                                                    0.0000000

 ------------------------------------------------------------------------------------

Properties computed using the CI ROOT 0 -> ROOT 53 density matrix


Transition Multipole Moments:

 ------------------------------------------------------------------------------------
     Multipole            Electronic (a.u.)      Nuclear  (a.u.)        Total (a.u.)
 ------------------------------------------------------------------------------------

 L = 1.  Multiply by 2.5417464519 to convert [e a0] to [Debye]
 Dipole X            :          0.0000000            0.0000000            0.0000000
 Dipole Y            :         -0.0000000            0.0000000           -0.0000000
 Dipole Z            :         -0.0303231            0.0000000           -0.0303231
 Magnitude           :                                                    0.0303231

 ------------------------------------------------------------------------------------

Properties computed using the CI ROOT 0 -> ROOT 54 density matrix


Transition Multipole Moments:

 ------------------------------------------------------------------------------------
     Multipole            Electronic (a.u.)      Nuclear  (a.u.)        Total (a.u.)
 ------------------------------------------------------------------------------------

 L = 1.  Multiply by 2.5417464519 to convert [e a0] to [Debye]
 Dipole X            :          0.0000000            0.0000000            0.0000000
 Dipole Y            :          0.0000000            0.0000000            0.0000000
 Dipole Z            :         -0.0000000            0.0000000           -0.0000000
 Magnitude           :                                                    0.0000000

 ------------------------------------------------------------------------------------

Properties computed using the CI ROOT 0 -> ROOT 55 density matrix


Transition Multipole Moments:

 ------------------------------------------------------------------------------------
     Multipole            Electronic (a.u.)      Nuclear  (a.u.)        Total (a.u.)
 ------------------------------------------------------------------------------------

 L = 1.  Multiply by 2.5417464519 to convert [e a0] to [Debye]
 Dipole X            :         -0.0000000            0.0000000           -0.0000000
 Dipole Y            :         -0.0000000            0.0000000           -0.0000000
 Dipole Z            :          0.0306562            0.0000000            0.0306562
 Magnitude           :                                                    0.0306562

 ------------------------------------------------------------------------------------

Properties computed using the CI ROOT 0 -> ROOT 56 density matrix


Transition Multipole Moments:

 ------------------------------------------------------------------------------------
     Multipole            Electronic (a.u.)      Nuclear  (a.u.)        Total (a.u.)
 ------------------------------------------------------------------------------------

 L = 1.  Multiply by 2.5417464519 to convert [e a0] to [Debye]
 Dipole X            :          0.0034124            0.0000000            0.0034124
 Dipole Y            :          0.0087814            0.0000000            0.0087814
 Dipole Z            :         -0.0000000            0.0000000           -0.0000000
 Magnitude           :                                                    0.0094211

 ------------------------------------------------------------------------------------

Properties computed using the CI ROOT 0 -> ROOT 57 density matrix


Transition Multipole Moments:

 ------------------------------------------------------------------------------------
     Multipole            Electronic (a.u.)      Nuclear  (a.u.)        Total (a.u.)
 ------------------------------------------------------------------------------------

 L = 1.  Multiply by 2.5417464519 to convert [e a0] to [Debye]
 Dipole X            :          0.0087814            0.0000000            0.0087814
 Dipole Y            :         -0.0034124            0.0000000           -0.0034124
 Dipole Z            :         -0.0000000            0.0000000           -0.0000000
 Magnitude           :                                                    0.0094211

 ------------------------------------------------------------------------------------

Properties computed using the CI ROOT 0 -> ROOT 58 density matrix


Transition Multipole Moments:

 ------------------------------------------------------------------------------------
     Multipole            Electronic (a.u.)      Nuclear  (a.u.)        Total (a.u.)
 ------------------------------------------------------------------------------------

 L = 1.  Multiply by 2.5417464519 to convert [e a0] to [Debye]
 Dipole X            :          0.0042886            0.0000000            0.0042886
 Dipole Y            :         -0.0200144            0.0000000           -0.0200144
 Dipole Z            :          0.0000000            0.0000000            0.0000000
 Magnitude           :                                                    0.0204687

 ------------------------------------------------------------------------------------

Properties computed using the CI ROOT 0 -> ROOT 59 density matrix


Transition Multipole Moments:

 ------------------------------------------------------------------------------------
     Multipole            Electronic (a.u.)      Nuclear  (a.u.)        Total (a.u.)
 ------------------------------------------------------------------------------------

 L = 1.  Multiply by 2.5417464519 to convert [e a0] to [Debye]
 Dipole X            :         -0.0200144            0.0000000           -0.0200144
 Dipole Y            :         -0.0042886            0.0000000           -0.0042886
 Dipole Z            :         -0.0000000            0.0000000           -0.0000000
 Magnitude           :                                                    0.0204687

 ------------------------------------------------------------------------------------

Properties computed using the CI ROOT 0 -> ROOT 60 density matrix


Transition Multipole Moments:

 ------------------------------------------------------------------------------------
     Multipole            Electronic (a.u.)      Nuclear  (a.u.)        Total (a.u.)
 ------------------------------------------------------------------------------------

 L = 1.  Multiply by 2.5417464519 to convert [e a0] to [Debye]
 Dipole X            :         -0.0000000            0.0000000           -0.0000000
 Dipole Y            :         -0.0000000            0.0000000           -0.0000000
 Dipole Z            :         -0.0438703            0.0000000           -0.0438703
 Magnitude           :                                                    0.0438703

 ------------------------------------------------------------------------------------

Properties computed using the CI ROOT 0 -> ROOT 61 density matrix


Transition Multipole Moments:

 ------------------------------------------------------------------------------------
     Multipole            Electronic (a.u.)      Nuclear  (a.u.)        Total (a.u.)
 ------------------------------------------------------------------------------------

 L = 1.  Multiply by 2.5417464519 to convert [e a0] to [Debye]
 Dipole X            :          0.0000000            0.0000000            0.0000000
 Dipole Y            :          0.0000000            0.0000000            0.0000000
 Dipole Z            :          0.0318870            0.0000000            0.0318870
 Magnitude           :                                                    0.0318870

 ------------------------------------------------------------------------------------

Properties computed using the CI ROOT 0 -> ROOT 62 density matrix


Transition Multipole Moments:

 ------------------------------------------------------------------------------------
     Multipole            Electronic (a.u.)      Nuclear  (a.u.)        Total (a.u.)
 ------------------------------------------------------------------------------------

 L = 1.  Multiply by 2.5417464519 to convert [e a0] to [Debye]
 Dipole X            :         -0.0007255            0.0000000           -0.0007255
 Dipole Y            :         -0.0021554            0.0000000           -0.0021554
 Dipole Z            :          0.0000000            0.0000000            0.0000000
 Magnitude           :                                                    0.0022742

 ------------------------------------------------------------------------------------

Properties computed using the CI ROOT 0 -> ROOT 63 density matrix


Transition Multipole Moments:

 ------------------------------------------------------------------------------------
     Multipole            Electronic (a.u.)      Nuclear  (a.u.)        Total (a.u.)
 ------------------------------------------------------------------------------------

 L = 1.  Multiply by 2.5417464519 to convert [e a0] to [Debye]
 Dipole X            :         -0.0021554            0.0000000           -0.0021554
 Dipole Y            :          0.0007255            0.0000000            0.0007255
 Dipole Z            :         -0.0000000            0.0000000           -0.0000000
 Magnitude           :                                                    0.0022742

 ------------------------------------------------------------------------------------

Properties computed using the CI ROOT 0 -> ROOT 64 density matrix


Transition Multipole Moments:

 ------------------------------------------------------------------------------------
     Multipole            Electronic (a.u.)      Nuclear  (a.u.)        Total (a.u.)
 ------------------------------------------------------------------------------------

 L = 1.  Multiply by 2.5417464519 to convert [e a0] to [Debye]
 Dipole X            :          0.0000000            0.0000000            0.0000000
 Dipole Y            :          0.0000000            0.0000000            0.0000000
 Dipole Z            :         -0.0000000            0.0000000           -0.0000000
 Magnitude           :                                                    0.0000000

 ------------------------------------------------------------------------------------

Properties computed using the CI ROOT 0 -> ROOT 65 density matrix


Transition Multipole Moments:

 ------------------------------------------------------------------------------------
     Multipole            Electronic (a.u.)      Nuclear  (a.u.)        Total (a.u.)
 ------------------------------------------------------------------------------------

 L = 1.  Multiply by 2.5417464519 to convert [e a0] to [Debye]
 Dipole X            :         -0.0000000            0.0000000           -0.0000000
 Dipole Y            :          0.0000000            0.0000000            0.0000000
 Dipole Z            :         -0.0000000            0.0000000           -0.0000000
 Magnitude           :                                                    0.0000000

 ------------------------------------------------------------------------------------

Properties computed using the CI ROOT 0 -> ROOT 66 density matrix


Transition Multipole Moments:

 ------------------------------------------------------------------------------------
     Multipole            Electronic (a.u.)      Nuclear  (a.u.)        Total (a.u.)
 ------------------------------------------------------------------------------------

 L = 1.  Multiply by 2.5417464519 to convert [e a0] to [Debye]
 Dipole X            :          0.0000000            0.0000000            0.0000000
 Dipole Y            :          0.0000000            0.0000000            0.0000000
 Dipole Z            :          0.0000000            0.0000000            0.0000000
 Magnitude           :                                                    0.0000000

 ------------------------------------------------------------------------------------

Properties computed using the CI ROOT 0 -> ROOT 67 density matrix


Transition Multipole Moments:

 ------------------------------------------------------------------------------------
     Multipole            Electronic (a.u.)      Nuclear  (a.u.)        Total (a.u.)
 ------------------------------------------------------------------------------------

 L = 1.  Multiply by 2.5417464519 to convert [e a0] to [Debye]
 Dipole X            :         -0.0000000            0.0000000           -0.0000000
 Dipole Y            :          0.0000000            0.0000000            0.0000000
 Dipole Z            :          0.0190915            0.0000000            0.0190915
 Magnitude           :                                                    0.0190915

 ------------------------------------------------------------------------------------

Properties computed using the CI ROOT 0 -> ROOT 68 density matrix


Transition Multipole Moments:

 ------------------------------------------------------------------------------------
     Multipole            Electronic (a.u.)      Nuclear  (a.u.)        Total (a.u.)
 ------------------------------------------------------------------------------------

 L = 1.  Multiply by 2.5417464519 to convert [e a0] to [Debye]
 Dipole X            :         -0.0008686            0.0000000           -0.0008686
 Dipole Y            :          0.0036715            0.0000000            0.0036715
 Dipole Z            :          0.0000000            0.0000000            0.0000000
 Magnitude           :                                                    0.0037728

 ------------------------------------------------------------------------------------

Properties computed using the CI ROOT 0 -> ROOT 69 density matrix


Transition Multipole Moments:

 ------------------------------------------------------------------------------------
     Multipole            Electronic (a.u.)      Nuclear  (a.u.)        Total (a.u.)
 ------------------------------------------------------------------------------------

 L = 1.  Multiply by 2.5417464519 to convert [e a0] to [Debye]
 Dipole X            :         -0.0036715            0.0000000           -0.0036715
 Dipole Y            :         -0.0008686            0.0000000           -0.0008686
 Dipole Z            :          0.0000000            0.0000000            0.0000000
 Magnitude           :                                                    0.0037728

 ------------------------------------------------------------------------------------

Properties computed using the CI ROOT 0 -> ROOT 70 density matrix


Transition Multipole Moments:

 ------------------------------------------------------------------------------------
     Multipole            Electronic (a.u.)      Nuclear  (a.u.)        Total (a.u.)
 ------------------------------------------------------------------------------------

 L = 1.  Multiply by 2.5417464519 to convert [e a0] to [Debye]
 Dipole X            :          0.0000000            0.0000000            0.0000000
 Dipole Y            :          0.0000000            0.0000000            0.0000000
 Dipole Z            :          0.0000000            0.0000000            0.0000000
 Magnitude           :                                                    0.0000000

 ------------------------------------------------------------------------------------

Properties computed using the CI ROOT 0 -> ROOT 71 density matrix


Transition Multipole Moments:

 ------------------------------------------------------------------------------------
     Multipole            Electronic (a.u.)      Nuclear  (a.u.)        Total (a.u.)
 ------------------------------------------------------------------------------------

 L = 1.  Multiply by 2.5417464519 to convert [e a0] to [Debye]
 Dipole X            :          0.0000000            0.0000000            0.0000000
 Dipole Y            :         -0.0000000            0.0000000           -0.0000000
 Dipole Z            :         -0.0000000            0.0000000           -0.0000000
 Magnitude           :                                                    0.0000000

 ------------------------------------------------------------------------------------

Properties computed using the CI ROOT 0 -> ROOT 72 density matrix


Transition Multipole Moments:

 ------------------------------------------------------------------------------------
     Multipole            Electronic (a.u.)      Nuclear  (a.u.)        Total (a.u.)
 ------------------------------------------------------------------------------------

 L = 1.  Multiply by 2.5417464519 to convert [e a0] to [Debye]
 Dipole X            :          0.0000000            0.0000000            0.0000000
 Dipole Y            :          0.0000000            0.0000000            0.0000000
 Dipole Z            :          0.0000000            0.0000000            0.0000000
 Magnitude           :                                                    0.0000000

 ------------------------------------------------------------------------------------

Properties computed using the CI ROOT 0 -> ROOT 73 density matrix


Transition Multipole Moments:

 ------------------------------------------------------------------------------------
     Multipole            Electronic (a.u.)      Nuclear  (a.u.)        Total (a.u.)
 ------------------------------------------------------------------------------------

 L = 1.  Multiply by 2.5417464519 to convert [e a0] to [Debye]
 Dipole X            :          0.0000000            0.0000000            0.0000000
 Dipole Y            :          0.0000000            0.0000000            0.0000000
 Dipole Z            :          0.0000000            0.0000000            0.0000000
 Magnitude           :                                                    0.0000000

 ------------------------------------------------------------------------------------

Properties computed using the CI ROOT 0 -> ROOT 74 density matrix


Transition Multipole Moments:

 ------------------------------------------------------------------------------------
     Multipole            Electronic (a.u.)      Nuclear  (a.u.)        Total (a.u.)
 ------------------------------------------------------------------------------------

 L = 1.  Multiply by 2.5417464519 to convert [e a0] to [Debye]
 Dipole X            :         -0.0000000            0.0000000           -0.0000000
 Dipole Y            :         -0.0000000            0.0000000           -0.0000000
 Dipole Z            :         -0.0000000            0.0000000           -0.0000000
 Magnitude           :                                                    0.0000000

 ------------------------------------------------------------------------------------

Properties computed using the CI ROOT 0 -> ROOT 75 density matrix


Transition Multipole Moments:

 ------------------------------------------------------------------------------------
     Multipole            Electronic (a.u.)      Nuclear  (a.u.)        Total (a.u.)
 ------------------------------------------------------------------------------------

 L = 1.  Multiply by 2.5417464519 to convert [e a0] to [Debye]
 Dipole X            :          0.0000000            0.0000000            0.0000000
 Dipole Y            :          0.0000000            0.0000000            0.0000000
 Dipole Z            :          0.0094836            0.0000000            0.0094836
 Magnitude           :                                                    0.0094836

 ------------------------------------------------------------------------------------

Properties computed using the CI ROOT 0 -> ROOT 76 density matrix


Transition Multipole Moments:

 ------------------------------------------------------------------------------------
     Multipole            Electronic (a.u.)      Nuclear  (a.u.)        Total (a.u.)
 ------------------------------------------------------------------------------------

 L = 1.  Multiply by 2.5417464519 to convert [e a0] to [Debye]
 Dipole X            :         -0.0000000            0.0000000           -0.0000000
 Dipole Y            :         -0.0000000            0.0000000           -0.0000000
 Dipole Z            :         -0.0035488            0.0000000           -0.0035488
 Magnitude           :                                                    0.0035488

 ------------------------------------------------------------------------------------

Properties computed using the CI ROOT 0 -> ROOT 77 density matrix


Transition Multipole Moments:

 ------------------------------------------------------------------------------------
     Multipole            Electronic (a.u.)      Nuclear  (a.u.)        Total (a.u.)
 ------------------------------------------------------------------------------------

 L = 1.  Multiply by 2.5417464519 to convert [e a0] to [Debye]
 Dipole X            :         -0.0000000            0.0000000           -0.0000000
 Dipole Y            :         -0.0000000            0.0000000           -0.0000000
 Dipole Z            :          0.0000000            0.0000000            0.0000000
 Magnitude           :                                                    0.0000000

 ------------------------------------------------------------------------------------

Properties computed using the CI ROOT 0 -> ROOT 78 density matrix


Transition Multipole Moments:

 ------------------------------------------------------------------------------------
     Multipole            Electronic (a.u.)      Nuclear  (a.u.)        Total (a.u.)
 ------------------------------------------------------------------------------------

 L = 1.  Multiply by 2.5417464519 to convert [e a0] to [Debye]
 Dipole X            :          0.0000000            0.0000000            0.0000000
 Dipole Y            :         -0.0000000            0.0000000           -0.0000000
 Dipole Z            :          0.0039081            0.0000000            0.0039081
 Magnitude           :                                                    0.0039081

 ------------------------------------------------------------------------------------

Properties computed using the CI ROOT 0 -> ROOT 79 density matrix


Transition Multipole Moments:

 ------------------------------------------------------------------------------------
     Multipole            Electronic (a.u.)      Nuclear  (a.u.)        Total (a.u.)
 ------------------------------------------------------------------------------------

 L = 1.  Multiply by 2.5417464519 to convert [e a0] to [Debye]
 Dipole X            :          0.0000000            0.0000000            0.0000000
 Dipole Y            :          0.0000000            0.0000000            0.0000000
 Dipole Z            :         -0.0000000            0.0000000           -0.0000000
 Magnitude           :                                                    0.0000000

 ------------------------------------------------------------------------------------

Properties computed using the CI ROOT 0 -> ROOT 80 density matrix


Transition Multipole Moments:

 ------------------------------------------------------------------------------------
     Multipole            Electronic (a.u.)      Nuclear  (a.u.)        Total (a.u.)
 ------------------------------------------------------------------------------------

 L = 1.  Multiply by 2.5417464519 to convert [e a0] to [Debye]
 Dipole X            :          0.0000000            0.0000000            0.0000000
 Dipole Y            :          0.0000000            0.0000000            0.0000000
 Dipole Z            :          0.0000000            0.0000000            0.0000000
 Magnitude           :                                                    0.0000000

 ------------------------------------------------------------------------------------

Properties computed using the CI ROOT 0 -> ROOT 81 density matrix


Transition Multipole Moments:

 ------------------------------------------------------------------------------------
     Multipole            Electronic (a.u.)      Nuclear  (a.u.)        Total (a.u.)
 ------------------------------------------------------------------------------------

 L = 1.  Multiply by 2.5417464519 to convert [e a0] to [Debye]
 Dipole X            :         -0.0000000            0.0000000           -0.0000000
 Dipole Y            :         -0.0000000            0.0000000           -0.0000000
 Dipole Z            :          0.0000000            0.0000000            0.0000000
 Magnitude           :                                                    0.0000000

 ------------------------------------------------------------------------------------

Properties computed using the CI ROOT 0 -> ROOT 82 density matrix


Transition Multipole Moments:

 ------------------------------------------------------------------------------------
     Multipole            Electronic (a.u.)      Nuclear  (a.u.)        Total (a.u.)
 ------------------------------------------------------------------------------------

 L = 1.  Multiply by 2.5417464519 to convert [e a0] to [Debye]
 Dipole X            :         -0.0000000            0.0000000           -0.0000000
 Dipole Y            :          0.0000000            0.0000000            0.0000000
 Dipole Z            :          0.0000000            0.0000000            0.0000000
 Magnitude           :                                                    0.0000000

 ------------------------------------------------------------------------------------

Properties computed using the CI ROOT 0 -> ROOT 83 density matrix


Transition Multipole Moments:

 ------------------------------------------------------------------------------------
     Multipole            Electronic (a.u.)      Nuclear  (a.u.)        Total (a.u.)
 ------------------------------------------------------------------------------------

 L = 1.  Multiply by 2.5417464519 to convert [e a0] to [Debye]
 Dipole X            :         -0.0000000            0.0000000           -0.0000000
 Dipole Y            :         -0.0000000            0.0000000           -0.0000000
 Dipole Z            :         -0.0000000            0.0000000           -0.0000000
 Magnitude           :                                                    0.0000000

 ------------------------------------------------------------------------------------

Properties computed using the CI ROOT 0 -> ROOT 84 density matrix


Transition Multipole Moments:

 ------------------------------------------------------------------------------------
     Multipole            Electronic (a.u.)      Nuclear  (a.u.)        Total (a.u.)
 ------------------------------------------------------------------------------------

 L = 1.  Multiply by 2.5417464519 to convert [e a0] to [Debye]
 Dipole X            :         -0.0000000            0.0000000           -0.0000000
 Dipole Y            :         -0.0000000            0.0000000           -0.0000000
 Dipole Z            :         -0.0000000            0.0000000           -0.0000000
 Magnitude           :                                                    0.0000000

 ------------------------------------------------------------------------------------

Properties computed using the CI ROOT 0 -> ROOT 85 density matrix


Transition Multipole Moments:

 ------------------------------------------------------------------------------------
     Multipole            Electronic (a.u.)      Nuclear  (a.u.)        Total (a.u.)
 ------------------------------------------------------------------------------------

 L = 1.  Multiply by 2.5417464519 to convert [e a0] to [Debye]
 Dipole X            :          0.0000000            0.0000000            0.0000000
 Dipole Y            :         -0.0000000            0.0000000           -0.0000000
 Dipole Z            :          0.0000000            0.0000000            0.0000000
 Magnitude           :                                                    0.0000000

 ------------------------------------------------------------------------------------

Properties computed using the CI ROOT 0 -> ROOT 86 density matrix


Transition Multipole Moments:

 ------------------------------------------------------------------------------------
     Multipole            Electronic (a.u.)      Nuclear  (a.u.)        Total (a.u.)
 ------------------------------------------------------------------------------------

 L = 1.  Multiply by 2.5417464519 to convert [e a0] to [Debye]
 Dipole X            :         -0.0000000            0.0000000           -0.0000000
 Dipole Y            :         -0.0000000            0.0000000           -0.0000000
 Dipole Z            :         -0.0000000            0.0000000           -0.0000000
 Magnitude           :                                                    0.0000000

 ------------------------------------------------------------------------------------

Properties computed using the CI ROOT 0 -> ROOT 87 density matrix


Transition Multipole Moments:

 ------------------------------------------------------------------------------------
     Multipole            Electronic (a.u.)      Nuclear  (a.u.)        Total (a.u.)
 ------------------------------------------------------------------------------------

 L = 1.  Multiply by 2.5417464519 to convert [e a0] to [Debye]
 Dipole X            :          0.0000000            0.0000000            0.0000000
 Dipole Y            :          0.0000000            0.0000000            0.0000000
 Dipole Z            :         -0.0000000            0.0000000           -0.0000000
 Magnitude           :                                                    0.0000000

 ------------------------------------------------------------------------------------

Properties computed using the CI ROOT 0 -> ROOT 88 density matrix


Transition Multipole Moments:

 ------------------------------------------------------------------------------------
     Multipole            Electronic (a.u.)      Nuclear  (a.u.)        Total (a.u.)
 ------------------------------------------------------------------------------------

 L = 1.  Multiply by 2.5417464519 to convert [e a0] to [Debye]
 Dipole X            :         -0.0000000            0.0000000           -0.0000000
 Dipole Y            :         -0.0000000            0.0000000           -0.0000000
 Dipole Z            :         -0.0000000            0.0000000           -0.0000000
 Magnitude           :                                                    0.0000000

 ------------------------------------------------------------------------------------

Properties computed using the CI ROOT 0 -> ROOT 89 density matrix


Transition Multipole Moments:

 ------------------------------------------------------------------------------------
     Multipole            Electronic (a.u.)      Nuclear  (a.u.)        Total (a.u.)
 ------------------------------------------------------------------------------------

 L = 1.  Multiply by 2.5417464519 to convert [e a0] to [Debye]
 Dipole X            :          0.0000000            0.0000000            0.0000000
 Dipole Y            :         -0.0000000            0.0000000           -0.0000000
 Dipole Z            :          0.0000000            0.0000000            0.0000000
 Magnitude           :                                                    0.0000000

 ------------------------------------------------------------------------------------

Properties computed using the CI ROOT 0 -> ROOT 90 density matrix


Transition Multipole Moments:

 ------------------------------------------------------------------------------------
     Multipole            Electronic (a.u.)      Nuclear  (a.u.)        Total (a.u.)
 ------------------------------------------------------------------------------------

 L = 1.  Multiply by 2.5417464519 to convert [e a0] to [Debye]
 Dipole X            :         -0.0000000            0.0000000           -0.0000000
 Dipole Y            :          0.0000000            0.0000000            0.0000000
 Dipole Z            :         -0.0000000            0.0000000           -0.0000000
 Magnitude           :                                                    0.0000000

 ------------------------------------------------------------------------------------

Properties computed using the CI ROOT 0 -> ROOT 91 density matrix


Transition Multipole Moments:

 ------------------------------------------------------------------------------------
     Multipole            Electronic (a.u.)      Nuclear  (a.u.)        Total (a.u.)
 ------------------------------------------------------------------------------------

 L = 1.  Multiply by 2.5417464519 to convert [e a0] to [Debye]
 Dipole X            :          0.0000000            0.0000000            0.0000000
 Dipole Y            :          0.0000000            0.0000000            0.0000000
 Dipole Z            :         -0.0000000            0.0000000           -0.0000000
 Magnitude           :                                                    0.0000000

 ------------------------------------------------------------------------------------

Properties computed using the CI ROOT 0 -> ROOT 92 density matrix


Transition Multipole Moments:

 ------------------------------------------------------------------------------------
     Multipole            Electronic (a.u.)      Nuclear  (a.u.)        Total (a.u.)
 ------------------------------------------------------------------------------------

 L = 1.  Multiply by 2.5417464519 to convert [e a0] to [Debye]
 Dipole X            :          0.0000000            0.0000000            0.0000000
 Dipole Y            :         -0.0000000            0.0000000           -0.0000000
 Dipole Z            :          0.0000000            0.0000000            0.0000000
 Magnitude           :                                                    0.0000000

 ------------------------------------------------------------------------------------

Properties computed using the CI ROOT 0 -> ROOT 93 density matrix


Transition Multipole Moments:

 ------------------------------------------------------------------------------------
     Multipole            Electronic (a.u.)      Nuclear  (a.u.)        Total (a.u.)
 ------------------------------------------------------------------------------------

 L = 1.  Multiply by 2.5417464519 to convert [e a0] to [Debye]
 Dipole X            :         -0.0000000            0.0000000           -0.0000000
 Dipole Y            :         -0.0000000            0.0000000           -0.0000000
 Dipole Z            :          0.0089074            0.0000000            0.0089074
 Magnitude           :                                                    0.0089074

 ------------------------------------------------------------------------------------

Properties computed using the CI ROOT 0 -> ROOT 94 density matrix


Transition Multipole Moments:

 ------------------------------------------------------------------------------------
     Multipole            Electronic (a.u.)      Nuclear  (a.u.)        Total (a.u.)
 ------------------------------------------------------------------------------------

 L = 1.  Multiply by 2.5417464519 to convert [e a0] to [Debye]
 Dipole X            :         -0.0001081            0.0000000           -0.0001081
 Dipole Y            :         -0.0007944            0.0000000           -0.0007944
 Dipole Z            :         -0.0000000            0.0000000           -0.0000000
 Magnitude           :                                                    0.0008017

 ------------------------------------------------------------------------------------

Properties computed using the CI ROOT 0 -> ROOT 95 density matrix


Transition Multipole Moments:

 ------------------------------------------------------------------------------------
     Multipole            Electronic (a.u.)      Nuclear  (a.u.)        Total (a.u.)
 ------------------------------------------------------------------------------------

 L = 1.  Multiply by 2.5417464519 to convert [e a0] to [Debye]
 Dipole X            :          0.0007944            0.0000000            0.0007944
 Dipole Y            :         -0.0001081            0.0000000           -0.0001081
 Dipole Z            :         -0.0000000            0.0000000           -0.0000000
 Magnitude           :                                                    0.0008017

 ------------------------------------------------------------------------------------

Properties computed using the CI ROOT 0 -> ROOT 96 density matrix


Transition Multipole Moments:

 ------------------------------------------------------------------------------------
     Multipole            Electronic (a.u.)      Nuclear  (a.u.)        Total (a.u.)
 ------------------------------------------------------------------------------------

 L = 1.  Multiply by 2.5417464519 to convert [e a0] to [Debye]
 Dipole X            :          0.0000000            0.0000000            0.0000000
 Dipole Y            :         -0.0000000            0.0000000           -0.0000000
 Dipole Z            :          0.0017492            0.0000000            0.0017492
 Magnitude           :                                                    0.0017492

 ------------------------------------------------------------------------------------

Properties computed using the CI ROOT 0 -> ROOT 97 density matrix


Transition Multipole Moments:

 ------------------------------------------------------------------------------------
     Multipole            Electronic (a.u.)      Nuclear  (a.u.)        Total (a.u.)
 ------------------------------------------------------------------------------------

 L = 1.  Multiply by 2.5417464519 to convert [e a0] to [Debye]
 Dipole X            :          0.0013142            0.0000000            0.0013142
 Dipole Y            :          0.0020046            0.0000000            0.0020046
 Dipole Z            :         -0.0000000            0.0000000           -0.0000000
 Magnitude           :                                                    0.0023970

 ------------------------------------------------------------------------------------

Properties computed using the CI ROOT 0 -> ROOT 98 density matrix


Transition Multipole Moments:

 ------------------------------------------------------------------------------------
     Multipole            Electronic (a.u.)      Nuclear  (a.u.)        Total (a.u.)
 ------------------------------------------------------------------------------------

 L = 1.  Multiply by 2.5417464519 to convert [e a0] to [Debye]
 Dipole X            :         -0.0020046            0.0000000           -0.0020046
 Dipole Y            :          0.0013142            0.0000000            0.0013142
 Dipole Z            :          0.0000000            0.0000000            0.0000000
 Magnitude           :                                                    0.0023970

 ------------------------------------------------------------------------------------

Properties computed using the CI ROOT 0 -> ROOT 99 density matrix


Transition Multipole Moments:

 ------------------------------------------------------------------------------------
     Multipole            Electronic (a.u.)      Nuclear  (a.u.)        Total (a.u.)
 ------------------------------------------------------------------------------------

 L = 1.  Multiply by 2.5417464519 to convert [e a0] to [Debye]
 Dipole X            :         -0.0000000            0.0000000           -0.0000000
 Dipole Y            :         -0.0000000            0.0000000           -0.0000000
 Dipole Z            :          0.0000000            0.0000000            0.0000000
 Magnitude           :                                                    0.0000000

 ------------------------------------------------------------------------------------
  ## AO Mux (Symmetry 0) ##
  Irrep: 1 Size: 10 x 10

                 1                   2                   3                   4                   5

    1     0.00000000000000     0.00000000000000    -0.51848333168869     0.00000000000000     0.00000000000000
    2     0.00000000000000     0.00000000000000    -0.45387881636667     0.00000000000000     0.00000000000000
    3    -0.51848333168869    -0.45387881636667     0.00000000000000     0.00000000000000     0.00000000000000
    4     0.00000000000000     0.00000000000000     0.00000000000000     0.00000000000000     0.00000000000000
    5     0.00000000000000     0.00000000000000     0.00000000000000     0.00000000000000     0.00000000000000
    6     0.00000000000000     0.00000000000000    -0.22198260391161     0.00000000000000     0.00000000000000
    7     0.00000000000000     0.00000000000000    -0.34473513836442     0.00000000000000     0.00000000000000
    8    -0.22198260391161    -0.34473513836442     0.00000000000000     0.00000000000000    -0.23850770401938
    9     0.00000000000000     0.00000000000000     0.00000000000000     0.00000000000000     0.00000000000000
   10     0.00000000000000     0.00000000000000     0.23850770401938     0.00000000000000     0.00000000000000

                 6                   7                   8                   9                  10

    1     0.00000000000000     0.00000000000000    -0.22198260391161     0.00000000000000     0.00000000000000
    2     0.00000000000000     0.00000000000000    -0.34473513836442     0.00000000000000     0.00000000000000
    3    -0.22198260391161    -0.34473513836442     0.00000000000000     0.00000000000000     0.23850770401938
    4     0.00000000000000     0.00000000000000     0.00000000000000     0.00000000000000     0.00000000000000
    5     0.00000000000000     0.00000000000000    -0.23850770401938     0.00000000000000     0.00000000000000
    6     0.00000000000000     0.00000000000000    -0.51848333168869     0.00000000000000     0.00000000000000
    7     0.00000000000000     0.00000000000000    -0.45387881636667     0.00000000000000     0.00000000000000
    8    -0.51848333168869    -0.45387881636667     0.00000000000000     0.00000000000000     0.00000000000000
    9     0.00000000000000     0.00000000000000     0.00000000000000     0.00000000000000     0.00000000000000
   10     0.00000000000000     0.00000000000000     0.00000000000000     0.00000000000000     0.00000000000000



  ## AO Muy (Symmetry 0) ##
  Irrep: 1 Size: 10 x 10

                 1                   2                   3                   4                   5

    1     0.00000000000000     0.00000000000000     0.00000000000000    -0.51848333168869     0.00000000000000
    2     0.00000000000000     0.00000000000000     0.00000000000000    -0.45387881636667     0.00000000000000
    3     0.00000000000000     0.00000000000000     0.00000000000000     0.00000000000000     0.00000000000000
    4    -0.51848333168869    -0.45387881636667     0.00000000000000     0.00000000000000     0.00000000000000
    5     0.00000000000000     0.00000000000000     0.00000000000000     0.00000000000000     0.00000000000000
    6     0.00000000000000     0.00000000000000     0.00000000000000    -0.22198260391161     0.00000000000000
    7     0.00000000000000     0.00000000000000     0.00000000000000    -0.34473513836442     0.00000000000000
    8     0.00000000000000     0.00000000000000     0.00000000000000     0.00000000000000     0.00000000000000
    9    -0.22198260391161    -0.34473513836442     0.00000000000000     0.00000000000000    -0.23850770401938
   10     0.00000000000000     0.00000000000000     0.00000000000000     0.23850770401938     0.00000000000000

                 6                   7                   8                   9                  10

    1     0.00000000000000     0.00000000000000     0.00000000000000    -0.22198260391161     0.00000000000000
    2     0.00000000000000     0.00000000000000     0.00000000000000    -0.34473513836442     0.00000000000000
    3     0.00000000000000     0.00000000000000     0.00000000000000     0.00000000000000     0.00000000000000
    4    -0.22198260391161    -0.34473513836442     0.00000000000000     0.00000000000000     0.23850770401938
    5     0.00000000000000     0.00000000000000     0.00000000000000    -0.23850770401938     0.00000000000000
    6     0.00000000000000     0.00000000000000     0.00000000000000    -0.51848333168869     0.00000000000000
    7     0.00000000000000     0.00000000000000     0.00000000000000    -0.45387881636667     0.00000000000000
    8     0.00000000000000     0.00000000000000     0.00000000000000     0.00000000000000     0.00000000000000
    9    -0.51848333168869    -0.45387881636667     0.00000000000000     0.00000000000000     0.00000000000000
   10     0.00000000000000     0.00000000000000     0.00000000000000     0.00000000000000     0.00000000000000



  ## AO Muz (Symmetry 0) ##
  Irrep: 1 Size: 10 x 10

                 1                   2                   3                   4                   5

    1     0.69919866641940     0.46027692301255     0.00000000000000     0.00000000000000    -0.51848333168869
    2     0.46027692301255     0.69919866641940     0.00000000000000     0.00000000000000    -0.45387881636667
    3     0.00000000000000     0.00000000000000     0.69919866641940     0.00000000000000     0.00000000000000
    4     0.00000000000000     0.00000000000000     0.00000000000000     0.69919866641940     0.00000000000000
    5    -0.51848333168869    -0.45387881636667     0.00000000000000     0.00000000000000     0.69919866641940
    6     0.00000000000000    -0.22409559585490     0.00000000000000     0.00000000000000    -0.18223539398181
    7     0.22409559585490     0.00000000000000     0.00000000000000     0.00000000000000    -0.26381666992899
    8     0.00000000000000     0.00000000000000     0.00000000000000     0.00000000000000     0.00000000000000
    9     0.00000000000000     0.00000000000000     0.00000000000000     0.00000000000000     0.00000000000000
   10    -0.18223539398181    -0.26381666992899     0.00000000000000     0.00000000000000     0.00000000000000

                 6                   7                   8                   9                  10

    1     0.00000000000000     0.22409559585490     0.00000000000000     0.00000000000000    -0.18223539398181
    2    -0.22409559585490     0.00000000000000     0.00000000000000     0.00000000000000    -0.26381666992899
    3     0.00000000000000     0.00000000000000     0.00000000000000     0.00000000000000     0.00000000000000
    4     0.00000000000000     0.00000000000000     0.00000000000000     0.00000000000000     0.00000000000000
    5    -0.18223539398181    -0.26381666992899     0.00000000000000     0.00000000000000     0.00000000000000
    6    -0.69919866641940    -0.46027692301255     0.00000000000000     0.00000000000000    -0.51848333168869
    7    -0.46027692301255    -0.69919866641940     0.00000000000000     0.00000000000000    -0.45387881636667
    8     0.00000000000000     0.00000000000000    -0.69919866641940     0.00000000000000     0.00000000000000
    9     0.00000000000000     0.00000000000000     0.00000000000000    -0.69919866641940     0.00000000000000
   10    -0.51848333168869    -0.45387881636667     0.00000000000000     0.00000000000000    -0.69919866641940




    Psi4 stopped on: Wednesday, 05 August 2026 04:47PM
    Psi4 wall time for execution: 0:00:00.80

*** Psi4 exiting successfully. Buy a developer a beer!
